*SPEF "ieee 1481-1999"
*DESIGN "uart_top"
*DATE "11:11:11 Fri 11 11, 1111"
*VENDOR "OpenRCX"
*PROGRAM "Parallel Extraction"
*VERSION "1.0"
*DESIGN_FLOW "NAME_SCOPE LOCAL" "PIN_CAP NONE"
*DIVIDER /
*DELIMITER :
*BUS_DELIMITER []
*T_UNIT 1 NS
*C_UNIT 1 PF
*R_UNIT 1 OHM
*L_UNIT 1 HENRY

*NAME_MAP
*3 clk
*4 loopback_en
*5 rx_data[0]
*6 rx_data[1]
*7 rx_data[2]
*8 rx_data[3]
*9 rx_data[4]
*10 rx_data[5]
*11 rx_data[6]
*12 rx_data[7]
*13 rx_pin
*14 rx_valid
*15 tx_data[0]
*16 tx_data[1]
*17 tx_data[2]
*18 tx_data[3]
*19 tx_data[4]
*20 tx_data[5]
*21 tx_data[6]
*22 tx_data[7]
*23 tx_done
*24 tx_pin
*25 tx_start
*26 _000_
*27 _001_
*28 _002_
*29 _003_
*30 _004_
*31 _005_
*32 _006_
*33 _007_
*34 _008_
*35 _009_
*36 _010_
*37 _011_
*38 _012_
*39 _013_
*40 _014_
*41 _015_
*42 _016_
*43 _017_
*44 _018_
*45 _019_
*46 _020_
*47 _021_
*48 _022_
*49 _023_
*50 _024_
*51 _025_
*52 _026_
*53 _027_
*54 _028_
*55 _029_
*56 _030_
*57 _031_
*58 _032_
*59 _033_
*60 _034_
*61 _035_
*62 _036_
*63 _037_
*64 _038_
*65 _039_
*66 _040_
*67 _041_
*68 _042_
*69 _043_
*70 _044_
*71 _045_
*72 _046_
*73 _047_
*74 _048_
*75 _049_
*76 _050_
*77 _051_
*78 _052_
*79 _053_
*80 _054_
*81 _055_
*82 _056_
*83 _057_
*84 _058_
*85 _059_
*86 _060_
*87 _061_
*88 _062_
*89 _063_
*90 _064_
*91 _065_
*92 _066_
*93 _067_
*94 _068_
*95 _069_
*96 _070_
*97 _071_
*98 _072_
*99 _073_
*100 _074_
*101 _075_
*102 _076_
*103 _077_
*104 _078_
*105 _079_
*106 _080_
*107 _081_
*108 _082_
*109 _083_
*110 _084_
*111 _085_
*112 _086_
*113 _087_
*114 _088_
*115 _089_
*116 _090_
*117 _091_
*118 _092_
*119 _093_
*120 _094_
*121 _095_
*122 _096_
*123 _097_
*124 _098_
*125 _099_
*126 _100_
*127 _101_
*128 _102_
*129 _103_
*130 _104_
*131 _105_
*132 _106_
*133 _107_
*134 _108_
*135 _109_
*136 _110_
*137 _111_
*138 _112_
*139 _113_
*140 _114_
*141 _115_
*142 _116_
*143 _117_
*144 _118_
*145 _119_
*146 _120_
*147 _121_
*148 _122_
*149 _123_
*150 _124_
*151 _125_
*152 _126_
*153 _127_
*154 _128_
*155 _129_
*156 _130_
*157 _131_
*158 _132_
*159 _133_
*160 _134_
*161 _135_
*162 _136_
*163 _137_
*164 _138_
*165 _139_
*166 _140_
*167 _141_
*168 _142_
*169 _143_
*170 _144_
*171 _145_
*172 _146_
*173 _147_
*174 _148_
*175 _149_
*176 _150_
*177 _151_
*178 _152_
*179 _153_
*180 _154_
*181 _155_
*182 _156_
*183 _157_
*184 _158_
*185 _159_
*186 _160_
*187 _161_
*188 _162_
*189 _163_
*190 _164_
*191 _165_
*192 _166_
*193 _167_
*194 _168_
*195 _169_
*196 _170_
*197 _171_
*198 clknet_0_clk
*199 clknet_2_0__leaf_clk
*200 clknet_2_1__leaf_clk
*201 clknet_2_2__leaf_clk
*202 clknet_2_3__leaf_clk
*203 net1
*204 net10
*205 net11
*206 net12
*207 net13
*208 net14
*209 net15
*210 net16
*211 net17
*212 net18
*213 net19
*214 net2
*215 net20
*216 net21
*217 net22
*218 net23
*219 net24
*220 net25
*221 net26
*222 net27
*223 net28
*224 net29
*225 net3
*226 net30
*227 net31
*228 net32
*229 net33
*230 net34
*231 net35
*232 net36
*233 net37
*234 net38
*235 net39
*236 net4
*237 net40
*238 net41
*239 net42
*240 net43
*241 net44
*242 net45
*243 net46
*244 net47
*245 net48
*246 net49
*247 net5
*248 net50
*249 net51
*250 net52
*251 net53
*252 net54
*253 net55
*254 net56
*255 net57
*256 net58
*257 net59
*258 net6
*259 net60
*260 net61
*261 net62
*262 net7
*263 net8
*264 net9
*265 u_rx\.baud_cnt\[0\]
*266 u_rx\.baud_cnt\[1\]
*267 u_rx\.baud_cnt\[2\]
*268 u_rx\.baud_cnt\[3\]
*269 u_rx\.baud_cnt\[4\]
*270 u_rx\.baud_cnt\[5\]
*271 u_rx\.baud_cnt\[6\]
*272 u_rx\.baud_cnt\[7\]
*273 u_rx\.bit_cnt\[0\]
*274 u_rx\.bit_cnt\[1\]
*275 u_rx\.bit_cnt\[2\]
*276 u_rx\.state\[0\]
*277 u_rx\.state\[1\]
*278 u_rx\.state\[2\]
*279 u_tx\.baud_cnt\[0\]
*280 u_tx\.baud_cnt\[1\]
*281 u_tx\.baud_cnt\[2\]
*282 u_tx\.baud_cnt\[3\]
*283 u_tx\.baud_cnt\[4\]
*284 u_tx\.baud_cnt\[5\]
*285 u_tx\.baud_cnt\[6\]
*286 u_tx\.baud_cnt\[7\]
*287 u_tx\.bit_cnt\[0\]
*288 u_tx\.bit_cnt\[1\]
*289 u_tx\.bit_cnt\[2\]
*290 u_tx\.state\[0\]
*291 u_tx\.state\[1\]
*292 u_tx\.state\[2\]
*293 u_tx\.tx_shift_reg\[0\]
*294 u_tx\.tx_shift_reg\[1\]
*295 u_tx\.tx_shift_reg\[2\]
*296 u_tx\.tx_shift_reg\[3\]
*297 u_tx\.tx_shift_reg\[4\]
*298 u_tx\.tx_shift_reg\[5\]
*299 u_tx\.tx_shift_reg\[6\]
*300 u_tx\.tx_shift_reg\[7\]
*301 FILLER_0_0_104
*302 FILLER_0_0_113
*303 FILLER_0_0_125
*304 FILLER_0_0_137
*305 FILLER_0_0_141
*306 FILLER_0_0_149
*307 FILLER_0_0_161
*308 FILLER_0_0_167
*309 FILLER_0_0_169
*310 FILLER_0_0_18
*311 FILLER_0_0_181
*312 FILLER_0_0_29
*313 FILLER_0_0_33
*314 FILLER_0_0_49
*315 FILLER_0_0_55
*316 FILLER_0_0_57
*317 FILLER_0_0_6
*318 FILLER_0_0_65
*319 FILLER_0_0_69
*320 FILLER_0_0_81
*321 FILLER_0_0_95
*322 FILLER_0_10_129
*323 FILLER_0_10_137
*324 FILLER_0_10_141
*325 FILLER_0_10_153
*326 FILLER_0_10_165
*327 FILLER_0_10_177
*328 FILLER_0_10_18
*329 FILLER_0_10_189
*330 FILLER_0_10_22
*331 FILLER_0_10_26
*332 FILLER_0_10_37
*333 FILLER_0_10_6
*334 FILLER_0_10_65
*335 FILLER_0_10_69
*336 FILLER_0_10_80
*337 FILLER_0_10_85
*338 FILLER_0_10_97
*339 FILLER_0_11_111
*340 FILLER_0_11_113
*341 FILLER_0_11_15
*342 FILLER_0_11_150
*343 FILLER_0_11_162
*344 FILLER_0_11_169
*345 FILLER_0_11_181
*346 FILLER_0_11_189
*347 FILLER_0_11_3
*348 FILLER_0_11_35
*349 FILLER_0_11_55
*350 FILLER_0_11_67
*351 FILLER_0_11_83
*352 FILLER_0_12_104
*353 FILLER_0_12_124
*354 FILLER_0_12_136
*355 FILLER_0_12_157
*356 FILLER_0_12_169
*357 FILLER_0_12_181
*358 FILLER_0_12_187
*359 FILLER_0_12_19
*360 FILLER_0_12_27
*361 FILLER_0_12_37
*362 FILLER_0_12_49
*363 FILLER_0_12_58
*364 FILLER_0_12_70
*365 FILLER_0_12_82
*366 FILLER_0_12_85
*367 FILLER_0_12_97
*368 FILLER_0_13_110
*369 FILLER_0_13_113
*370 FILLER_0_13_125
*371 FILLER_0_13_137
*372 FILLER_0_13_149
*373 FILLER_0_13_15
*374 FILLER_0_13_161
*375 FILLER_0_13_167
*376 FILLER_0_13_169
*377 FILLER_0_13_181
*378 FILLER_0_13_189
*379 FILLER_0_13_27
*380 FILLER_0_13_3
*381 FILLER_0_13_39
*382 FILLER_0_13_62
*383 FILLER_0_13_74
*384 FILLER_0_13_86
*385 FILLER_0_13_98
*386 FILLER_0_14_118
*387 FILLER_0_14_128
*388 FILLER_0_14_137
*389 FILLER_0_14_141
*390 FILLER_0_14_15
*391 FILLER_0_14_151
*392 FILLER_0_14_163
*393 FILLER_0_14_176
*394 FILLER_0_14_186
*395 FILLER_0_14_190
*396 FILLER_0_14_23
*397 FILLER_0_14_3
*398 FILLER_0_14_38
*399 FILLER_0_14_44
*400 FILLER_0_14_78
*401 FILLER_0_15_109
*402 FILLER_0_15_113
*403 FILLER_0_15_135
*404 FILLER_0_15_164
*405 FILLER_0_15_18
*406 FILLER_0_15_185
*407 FILLER_0_15_24
*408 FILLER_0_15_41
*409 FILLER_0_15_53
*410 FILLER_0_15_57
*411 FILLER_0_15_65
*412 FILLER_0_15_75
*413 FILLER_0_15_87
*414 FILLER_0_16_114
*415 FILLER_0_16_126
*416 FILLER_0_16_138
*417 FILLER_0_16_141
*418 FILLER_0_16_153
*419 FILLER_0_16_165
*420 FILLER_0_16_177
*421 FILLER_0_16_189
*422 FILLER_0_16_27
*423 FILLER_0_16_29
*424 FILLER_0_16_41
*425 FILLER_0_16_53
*426 FILLER_0_16_62
*427 FILLER_0_16_76
*428 FILLER_0_16_85
*429 FILLER_0_17_10
*430 FILLER_0_17_103
*431 FILLER_0_17_111
*432 FILLER_0_17_122
*433 FILLER_0_17_134
*434 FILLER_0_17_146
*435 FILLER_0_17_158
*436 FILLER_0_17_166
*437 FILLER_0_17_169
*438 FILLER_0_17_177
*439 FILLER_0_17_187
*440 FILLER_0_17_22
*441 FILLER_0_17_28
*442 FILLER_0_17_3
*443 FILLER_0_17_38
*444 FILLER_0_17_57
*445 FILLER_0_17_63
*446 FILLER_0_17_67
*447 FILLER_0_17_79
*448 FILLER_0_17_91
*449 FILLER_0_18_104
*450 FILLER_0_18_141
*451 FILLER_0_18_15
*452 FILLER_0_18_168
*453 FILLER_0_18_176
*454 FILLER_0_18_187
*455 FILLER_0_18_23
*456 FILLER_0_18_3
*457 FILLER_0_18_53
*458 FILLER_0_18_65
*459 FILLER_0_18_82
*460 FILLER_0_18_85
*461 FILLER_0_19_109
*462 FILLER_0_19_113
*463 FILLER_0_19_129
*464 FILLER_0_19_136
*465 FILLER_0_19_149
*466 FILLER_0_19_15
*467 FILLER_0_19_164
*468 FILLER_0_19_169
*469 FILLER_0_19_189
*470 FILLER_0_19_27
*471 FILLER_0_19_3
*472 FILLER_0_19_39
*473 FILLER_0_19_51
*474 FILLER_0_19_55
*475 FILLER_0_19_57
*476 FILLER_0_19_69
*477 FILLER_0_19_73
*478 FILLER_0_19_93
*479 FILLER_0_1_107
*480 FILLER_0_1_111
*481 FILLER_0_1_113
*482 FILLER_0_1_121
*483 FILLER_0_1_138
*484 FILLER_0_1_15
*485 FILLER_0_1_150
*486 FILLER_0_1_162
*487 FILLER_0_1_169
*488 FILLER_0_1_181
*489 FILLER_0_1_189
*490 FILLER_0_1_3
*491 FILLER_0_1_37
*492 FILLER_0_1_57
*493 FILLER_0_1_63
*494 FILLER_0_1_81
*495 FILLER_0_1_89
*496 FILLER_0_20_121
*497 FILLER_0_20_133
*498 FILLER_0_20_139
*499 FILLER_0_20_141
*500 FILLER_0_20_15
*501 FILLER_0_20_170
*502 FILLER_0_20_176
*503 FILLER_0_20_180
*504 FILLER_0_20_27
*505 FILLER_0_20_29
*506 FILLER_0_20_3
*507 FILLER_0_20_41
*508 FILLER_0_20_60
*509 FILLER_0_20_66
*510 FILLER_0_20_72
*511 FILLER_0_20_85
*512 FILLER_0_20_95
*513 FILLER_0_21_104
*514 FILLER_0_21_113
*515 FILLER_0_21_125
*516 FILLER_0_21_147
*517 FILLER_0_21_15
*518 FILLER_0_21_159
*519 FILLER_0_21_167
*520 FILLER_0_21_169
*521 FILLER_0_21_181
*522 FILLER_0_21_189
*523 FILLER_0_21_27
*524 FILLER_0_21_3
*525 FILLER_0_21_40
*526 FILLER_0_21_52
*527 FILLER_0_21_76
*528 FILLER_0_21_88
*529 FILLER_0_21_94
*530 FILLER_0_22_108
*531 FILLER_0_22_120
*532 FILLER_0_22_129
*533 FILLER_0_22_133
*534 FILLER_0_22_15
*535 FILLER_0_22_162
*536 FILLER_0_22_170
*537 FILLER_0_22_188
*538 FILLER_0_22_23
*539 FILLER_0_22_3
*540 FILLER_0_22_45
*541 FILLER_0_22_57
*542 FILLER_0_22_65
*543 FILLER_0_22_83
*544 FILLER_0_22_85
*545 FILLER_0_22_96
*546 FILLER_0_23_107
*547 FILLER_0_23_121
*548 FILLER_0_23_133
*549 FILLER_0_23_145
*550 FILLER_0_23_151
*551 FILLER_0_23_166
*552 FILLER_0_23_169
*553 FILLER_0_23_187
*554 FILLER_0_23_29
*555 FILLER_0_23_37
*556 FILLER_0_23_46
*557 FILLER_0_23_54
*558 FILLER_0_23_78
*559 FILLER_0_23_9
*560 FILLER_0_23_99
*561 FILLER_0_24_126
*562 FILLER_0_24_138
*563 FILLER_0_24_141
*564 FILLER_0_24_149
*565 FILLER_0_24_176
*566 FILLER_0_24_182
*567 FILLER_0_24_24
*568 FILLER_0_24_29
*569 FILLER_0_24_3
*570 FILLER_0_24_46
*571 FILLER_0_24_7
*572 FILLER_0_24_72
*573 FILLER_0_24_85
*574 FILLER_0_24_97
*575 FILLER_0_25_101
*576 FILLER_0_25_109
*577 FILLER_0_25_113
*578 FILLER_0_25_125
*579 FILLER_0_25_137
*580 FILLER_0_25_149
*581 FILLER_0_25_15
*582 FILLER_0_25_161
*583 FILLER_0_25_167
*584 FILLER_0_25_169
*585 FILLER_0_25_181
*586 FILLER_0_25_189
*587 FILLER_0_25_27
*588 FILLER_0_25_3
*589 FILLER_0_25_39
*590 FILLER_0_25_51
*591 FILLER_0_25_55
*592 FILLER_0_25_57
*593 FILLER_0_25_69
*594 FILLER_0_25_77
*595 FILLER_0_25_87
*596 FILLER_0_25_95
*597 FILLER_0_26_120
*598 FILLER_0_26_141
*599 FILLER_0_26_156
*600 FILLER_0_26_165
*601 FILLER_0_26_177
*602 FILLER_0_26_185
*603 FILLER_0_26_23
*604 FILLER_0_26_27
*605 FILLER_0_26_3
*606 FILLER_0_26_56
*607 FILLER_0_26_64
*608 FILLER_0_26_76
*609 FILLER_0_26_85
*610 FILLER_0_26_97
*611 FILLER_0_27_105
*612 FILLER_0_27_111
*613 FILLER_0_27_113
*614 FILLER_0_27_125
*615 FILLER_0_27_132
*616 FILLER_0_27_15
*617 FILLER_0_27_163
*618 FILLER_0_27_167
*619 FILLER_0_27_169
*620 FILLER_0_27_181
*621 FILLER_0_27_189
*622 FILLER_0_27_27
*623 FILLER_0_27_3
*624 FILLER_0_27_35
*625 FILLER_0_27_39
*626 FILLER_0_27_51
*627 FILLER_0_27_55
*628 FILLER_0_27_71
*629 FILLER_0_27_75
*630 FILLER_0_27_81
*631 FILLER_0_27_91
*632 FILLER_0_28_101
*633 FILLER_0_28_113
*634 FILLER_0_28_117
*635 FILLER_0_28_129
*636 FILLER_0_28_137
*637 FILLER_0_28_141
*638 FILLER_0_28_15
*639 FILLER_0_28_153
*640 FILLER_0_28_165
*641 FILLER_0_28_177
*642 FILLER_0_28_189
*643 FILLER_0_28_27
*644 FILLER_0_28_29
*645 FILLER_0_28_3
*646 FILLER_0_28_37
*647 FILLER_0_28_44
*648 FILLER_0_28_52
*649 FILLER_0_28_61
*650 FILLER_0_28_73
*651 FILLER_0_28_81
*652 FILLER_0_28_85
*653 FILLER_0_29_100
*654 FILLER_0_29_113
*655 FILLER_0_29_131
*656 FILLER_0_29_143
*657 FILLER_0_29_15
*658 FILLER_0_29_155
*659 FILLER_0_29_167
*660 FILLER_0_29_169
*661 FILLER_0_29_181
*662 FILLER_0_29_189
*663 FILLER_0_29_27
*664 FILLER_0_29_3
*665 FILLER_0_29_39
*666 FILLER_0_29_52
*667 FILLER_0_29_63
*668 FILLER_0_29_78
*669 FILLER_0_29_90
*670 FILLER_0_2_110
*671 FILLER_0_2_122
*672 FILLER_0_2_127
*673 FILLER_0_2_139
*674 FILLER_0_2_141
*675 FILLER_0_2_153
*676 FILLER_0_2_165
*677 FILLER_0_2_177
*678 FILLER_0_2_189
*679 FILLER_0_2_21
*680 FILLER_0_2_27
*681 FILLER_0_2_37
*682 FILLER_0_2_45
*683 FILLER_0_2_58
*684 FILLER_0_2_70
*685 FILLER_0_2_82
*686 FILLER_0_2_85
*687 FILLER_0_2_9
*688 FILLER_0_2_93
*689 FILLER_0_2_98
*690 FILLER_0_30_110
*691 FILLER_0_30_122
*692 FILLER_0_30_134
*693 FILLER_0_30_141
*694 FILLER_0_30_15
*695 FILLER_0_30_153
*696 FILLER_0_30_165
*697 FILLER_0_30_177
*698 FILLER_0_30_189
*699 FILLER_0_30_27
*700 FILLER_0_30_3
*701 FILLER_0_30_45
*702 FILLER_0_30_64
*703 FILLER_0_30_85
*704 FILLER_0_30_93
*705 FILLER_0_31_104
*706 FILLER_0_31_111
*707 FILLER_0_31_113
*708 FILLER_0_31_12
*709 FILLER_0_31_125
*710 FILLER_0_31_137
*711 FILLER_0_31_141
*712 FILLER_0_31_149
*713 FILLER_0_31_153
*714 FILLER_0_31_165
*715 FILLER_0_31_169
*716 FILLER_0_31_181
*717 FILLER_0_31_24
*718 FILLER_0_31_29
*719 FILLER_0_31_37
*720 FILLER_0_31_49
*721 FILLER_0_31_55
*722 FILLER_0_31_57
*723 FILLER_0_31_61
*724 FILLER_0_31_70
*725 FILLER_0_31_79
*726 FILLER_0_31_83
*727 FILLER_0_31_85
*728 FILLER_0_31_93
*729 FILLER_0_3_101
*730 FILLER_0_3_109
*731 FILLER_0_3_113
*732 FILLER_0_3_142
*733 FILLER_0_3_161
*734 FILLER_0_3_167
*735 FILLER_0_3_169
*736 FILLER_0_3_181
*737 FILLER_0_3_189
*738 FILLER_0_3_20
*739 FILLER_0_3_3
*740 FILLER_0_3_32
*741 FILLER_0_3_44
*742 FILLER_0_3_57
*743 FILLER_0_3_65
*744 FILLER_0_3_77
*745 FILLER_0_3_85
*746 FILLER_0_3_91
*747 FILLER_0_4_109
*748 FILLER_0_4_121
*749 FILLER_0_4_127
*750 FILLER_0_4_139
*751 FILLER_0_4_161
*752 FILLER_0_4_173
*753 FILLER_0_4_185
*754 FILLER_0_4_27
*755 FILLER_0_4_29
*756 FILLER_0_4_3
*757 FILLER_0_4_44
*758 FILLER_0_4_52
*759 FILLER_0_4_63
*760 FILLER_0_4_82
*761 FILLER_0_4_85
*762 FILLER_0_4_97
*763 FILLER_0_5_111
*764 FILLER_0_5_129
*765 FILLER_0_5_136
*766 FILLER_0_5_148
*767 FILLER_0_5_15
*768 FILLER_0_5_160
*769 FILLER_0_5_169
*770 FILLER_0_5_181
*771 FILLER_0_5_23
*772 FILLER_0_5_3
*773 FILLER_0_5_44
*774 FILLER_0_5_57
*775 FILLER_0_5_69
*776 FILLER_0_5_81
*777 FILLER_0_5_93
*778 FILLER_0_6_109
*779 FILLER_0_6_121
*780 FILLER_0_6_133
*781 FILLER_0_6_139
*782 FILLER_0_6_141
*783 FILLER_0_6_15
*784 FILLER_0_6_151
*785 FILLER_0_6_163
*786 FILLER_0_6_175
*787 FILLER_0_6_187
*788 FILLER_0_6_27
*789 FILLER_0_6_29
*790 FILLER_0_6_3
*791 FILLER_0_6_37
*792 FILLER_0_6_46
*793 FILLER_0_6_54
*794 FILLER_0_6_60
*795 FILLER_0_6_83
*796 FILLER_0_6_85
*797 FILLER_0_6_97
*798 FILLER_0_7_107
*799 FILLER_0_7_111
*800 FILLER_0_7_113
*801 FILLER_0_7_135
*802 FILLER_0_7_166
*803 FILLER_0_7_169
*804 FILLER_0_7_181
*805 FILLER_0_7_189
*806 FILLER_0_7_19
*807 FILLER_0_7_3
*808 FILLER_0_7_31
*809 FILLER_0_7_36
*810 FILLER_0_7_44
*811 FILLER_0_7_53
*812 FILLER_0_7_57
*813 FILLER_0_7_93
*814 FILLER_0_8_103
*815 FILLER_0_8_115
*816 FILLER_0_8_127
*817 FILLER_0_8_131
*818 FILLER_0_8_139
*819 FILLER_0_8_141
*820 FILLER_0_8_15
*821 FILLER_0_8_153
*822 FILLER_0_8_165
*823 FILLER_0_8_177
*824 FILLER_0_8_189
*825 FILLER_0_8_27
*826 FILLER_0_8_3
*827 FILLER_0_8_35
*828 FILLER_0_8_47
*829 FILLER_0_8_63
*830 FILLER_0_8_75
*831 FILLER_0_8_83
*832 FILLER_0_8_90
*833 FILLER_0_8_94
*834 FILLER_0_9_113
*835 FILLER_0_9_125
*836 FILLER_0_9_137
*837 FILLER_0_9_149
*838 FILLER_0_9_161
*839 FILLER_0_9_167
*840 FILLER_0_9_169
*841 FILLER_0_9_181
*842 FILLER_0_9_189
*843 FILLER_0_9_27
*844 FILLER_0_9_3
*845 FILLER_0_9_35
*846 FILLER_0_9_43
*847 FILLER_0_9_52
*848 FILLER_0_9_57
*849 FILLER_0_9_63
*850 FILLER_0_9_71
*851 FILLER_0_9_83
*852 FILLER_0_9_95
*853 PHY_0
*854 PHY_1
*855 PHY_10
*856 PHY_11
*857 PHY_12
*858 PHY_13
*859 PHY_14
*860 PHY_15
*861 PHY_16
*862 PHY_17
*863 PHY_18
*864 PHY_19
*865 PHY_2
*866 PHY_20
*867 PHY_21
*868 PHY_22
*869 PHY_23
*870 PHY_24
*871 PHY_25
*872 PHY_26
*873 PHY_27
*874 PHY_28
*875 PHY_29
*876 PHY_3
*877 PHY_30
*878 PHY_31
*879 PHY_32
*880 PHY_33
*881 PHY_34
*882 PHY_35
*883 PHY_36
*884 PHY_37
*885 PHY_38
*886 PHY_39
*887 PHY_4
*888 PHY_40
*889 PHY_41
*890 PHY_42
*891 PHY_43
*892 PHY_44
*893 PHY_45
*894 PHY_46
*895 PHY_47
*896 PHY_48
*897 PHY_49
*898 PHY_5
*899 PHY_50
*900 PHY_51
*901 PHY_52
*902 PHY_53
*903 PHY_54
*904 PHY_55
*905 PHY_56
*906 PHY_57
*907 PHY_58
*908 PHY_59
*909 PHY_6
*910 PHY_60
*911 PHY_61
*912 PHY_62
*913 PHY_63
*914 PHY_7
*915 PHY_8
*916 PHY_9
*917 TAP_100
*918 TAP_101
*919 TAP_102
*920 TAP_103
*921 TAP_104
*922 TAP_105
*923 TAP_106
*924 TAP_107
*925 TAP_108
*926 TAP_109
*927 TAP_110
*928 TAP_111
*929 TAP_112
*930 TAP_113
*931 TAP_114
*932 TAP_115
*933 TAP_116
*934 TAP_117
*935 TAP_118
*936 TAP_119
*937 TAP_120
*938 TAP_121
*939 TAP_122
*940 TAP_123
*941 TAP_124
*942 TAP_125
*943 TAP_126
*944 TAP_127
*945 TAP_128
*946 TAP_129
*947 TAP_130
*948 TAP_131
*949 TAP_132
*950 TAP_133
*951 TAP_134
*952 TAP_135
*953 TAP_136
*954 TAP_137
*955 TAP_138
*956 TAP_139
*957 TAP_140
*958 TAP_141
*959 TAP_142
*960 TAP_143
*961 TAP_144
*962 TAP_145
*963 TAP_146
*964 TAP_147
*965 TAP_148
*966 TAP_149
*967 TAP_150
*968 TAP_151
*969 TAP_152
*970 TAP_153
*971 TAP_154
*972 TAP_155
*973 TAP_156
*974 TAP_157
*975 TAP_158
*976 TAP_159
*977 TAP_160
*978 TAP_161
*979 TAP_162
*980 TAP_163
*981 TAP_164
*982 TAP_165
*983 TAP_64
*984 TAP_65
*985 TAP_66
*986 TAP_67
*987 TAP_68
*988 TAP_69
*989 TAP_70
*990 TAP_71
*991 TAP_72
*992 TAP_73
*993 TAP_74
*994 TAP_75
*995 TAP_76
*996 TAP_77
*997 TAP_78
*998 TAP_79
*999 TAP_80
*1000 TAP_81
*1001 TAP_82
*1002 TAP_83
*1003 TAP_84
*1004 TAP_85
*1005 TAP_86
*1006 TAP_87
*1007 TAP_88
*1008 TAP_89
*1009 TAP_90
*1010 TAP_91
*1011 TAP_92
*1012 TAP_93
*1013 TAP_94
*1014 TAP_95
*1015 TAP_96
*1016 TAP_97
*1017 TAP_98
*1018 TAP_99
*1019 _172_
*1020 _173_
*1021 _174_
*1022 _175_
*1023 _176_
*1024 _177_
*1025 _178_
*1026 _179_
*1027 _180_
*1028 _181_
*1029 _182_
*1030 _183_
*1031 _184_
*1032 _185_
*1033 _186_
*1034 _187_
*1035 _188_
*1036 _189_
*1037 _190_
*1038 _191_
*1039 _192_
*1040 _193_
*1041 _194_
*1042 _195_
*1043 _196_
*1044 _197_
*1045 _198_
*1046 _199_
*1047 _200_
*1048 _201_
*1049 _202_
*1050 _203_
*1051 _204_
*1052 _205_
*1053 _206_
*1054 _207_
*1055 _208_
*1056 _209_
*1057 _210_
*1058 _211_
*1059 _212_
*1060 _213_
*1061 _214_
*1062 _215_
*1063 _216_
*1064 _217_
*1065 _218_
*1066 _219_
*1067 _220_
*1068 _221_
*1069 _222_
*1070 _223_
*1071 _224_
*1072 _225_
*1073 _226_
*1074 _227_
*1075 _228_
*1076 _229_
*1077 _230_
*1078 _231_
*1079 _232_
*1080 _233_
*1081 _234_
*1082 _235_
*1083 _236_
*1084 _237_
*1085 _238_
*1086 _239_
*1087 _240_
*1088 _241_
*1089 _242_
*1090 _243_
*1091 _244_
*1092 _245_
*1093 _246_
*1094 _247_
*1095 _248_
*1096 _249_
*1097 _250_
*1098 _251_
*1099 _252_
*1100 _253_
*1101 _254_
*1102 _255_
*1103 _256_
*1104 _257_
*1105 _258_
*1106 _259_
*1107 _260_
*1108 _261_
*1109 _262_
*1110 _263_
*1111 _264_
*1112 _265_
*1113 _266_
*1114 _267_
*1115 _268_
*1116 _269_
*1117 _270_
*1118 _271_
*1119 _272_
*1120 _273_
*1121 _274_
*1122 _275_
*1123 _276_
*1124 _277_
*1125 _278_
*1126 _279_
*1127 _280_
*1128 _281_
*1129 _282_
*1130 _283_
*1131 _284_
*1132 _285_
*1133 _286_
*1134 _287_
*1135 _288_
*1136 _289_
*1137 _290_
*1138 _291_
*1139 _292_
*1140 _293_
*1141 _294_
*1142 _295_
*1143 _296_
*1144 _297_
*1145 _298_
*1146 _299_
*1147 _300_
*1148 _301_
*1149 _302_
*1150 _303_
*1151 _304_
*1152 _305_
*1153 _306_
*1154 _307_
*1155 _308_
*1156 _309_
*1157 _310_
*1158 _311_
*1159 _312_
*1160 _313_
*1161 _314_
*1162 _315_
*1163 _316_
*1164 _317_
*1165 _318_
*1166 _319_
*1167 _320_
*1168 _321_
*1169 _322_
*1170 _323_
*1171 _324_
*1172 _325_
*1173 _326_
*1174 _327_
*1175 _328_
*1176 _329_
*1177 _330_
*1178 _331_
*1179 _332_
*1180 _333_
*1181 _334_
*1182 _335_
*1183 _336_
*1184 _337_
*1185 _338_
*1186 _339_
*1187 _340_
*1188 _341_
*1189 _342_
*1190 _343_
*1191 _344_
*1192 _345_
*1193 _346_
*1194 _347_
*1195 _348_
*1196 _349_
*1197 _350_
*1198 _351_
*1199 _352_
*1200 _353_
*1201 _354_
*1202 _355_
*1203 _356_
*1204 _357_
*1205 _358_
*1206 _359_
*1207 _360_
*1208 _361_
*1209 _362_
*1210 _363_
*1211 _364_
*1212 _365_
*1213 _366_
*1214 _367_
*1215 _368_
*1216 _369_
*1217 _370_
*1218 _371_
*1219 _372_
*1220 _373_
*1221 _374_
*1222 _375_
*1223 _376_
*1224 _377_
*1225 _378_
*1226 _379_
*1227 _380_
*1228 _381_
*1229 _382_
*1230 _383_
*1231 _384_
*1232 _385_
*1233 _386_
*1234 _387_
*1235 _388_
*1236 _389_
*1237 _390_
*1238 clkbuf_0_clk
*1239 clkbuf_2_0__f_clk
*1240 clkbuf_2_1__f_clk
*1241 clkbuf_2_2__f_clk
*1242 clkbuf_2_3__f_clk
*1243 hold1
*1244 hold10
*1245 hold11
*1246 hold12
*1247 hold13
*1248 hold14
*1249 hold15
*1250 hold16
*1251 hold17
*1252 hold18
*1253 hold19
*1254 hold2
*1255 hold20
*1256 hold21
*1257 hold22
*1258 hold23
*1259 hold24
*1260 hold25
*1261 hold26
*1262 hold27
*1263 hold28
*1264 hold29
*1265 hold3
*1266 hold30
*1267 hold31
*1268 hold32
*1269 hold33
*1270 hold34
*1271 hold35
*1272 hold36
*1273 hold37
*1274 hold38
*1275 hold39
*1276 hold4
*1277 hold5
*1278 hold6
*1279 hold7
*1280 hold8
*1281 hold9
*1282 input1
*1283 input10
*1284 input11
*1285 input2
*1286 input3
*1287 input4
*1288 input5
*1289 input6
*1290 input7
*1291 input8
*1292 input9
*1293 max_cap23
*1294 output12
*1295 output13
*1296 output14
*1297 output15
*1298 output16
*1299 output17
*1300 output18
*1301 output19
*1302 output20
*1303 output21
*1304 output22

*PORTS
clk I
loopback_en I
rx_data[0] O
rx_data[1] O
rx_data[2] O
rx_data[3] O
rx_data[4] O
rx_data[5] O
rx_data[6] O
rx_data[7] O
rx_pin I
rx_valid O
tx_data[0] I
tx_data[1] I
tx_data[2] I
tx_data[3] I
tx_data[4] I
tx_data[5] I
tx_data[6] I
tx_data[7] I
tx_done O
tx_pin O
tx_start I

*D_NET *3 0.0118739
*CONN
*P clk I
*I *1238:A I *D sky130_fd_sc_hd__clkbuf_16
*CAP
1 clk 0.00504562
2 *1238:A 0.00504562
3 *1238:A *1079:A1 0
4 *1238:A *1099:A2 0.000106208
5 *1238:A *1099:A3 0.00133534
6 *1238:A *80:48 0.000234858
7 *1238:A *202:10 0
8 *1238:A *204:12 0
9 *1238:A *210:31 0.000106299
*RES
1 clk *1238:A 42.1387 
*END

*D_NET *4 0.00116395
*CONN
*P loopback_en I
*I *1282:A I *D sky130_fd_sc_hd__buf_1
*CAP
1 loopback_en 0.000581977
2 *1282:A 0.000581977
3 *1282:A *1304:A 0
*RES
1 loopback_en *1282:A 19.2035 
*END

*D_NET *5 0.000989821
*CONN
*P rx_data[0] O
*I *1294:X O *D sky130_fd_sc_hd__clkbuf_4
*CAP
1 rx_data[0] 0.000366154
2 *1294:X 0.000366154
3 rx_data[0] *1287:A 0.000224478
4 rx_data[0] *1294:A 3.30352e-05
*RES
1 *1294:X rx_data[0] 22.05 
*END

*D_NET *6 0.000503239
*CONN
*P rx_data[1] O
*I *1295:X O *D sky130_fd_sc_hd__clkbuf_4
*CAP
1 rx_data[1] 0.000251619
2 *1295:X 0.000251619
*RES
1 *1295:X rx_data[1] 19.9411 
*END

*D_NET *7 0.000606066
*CONN
*P rx_data[2] O
*I *1296:X O *D sky130_fd_sc_hd__clkbuf_4
*CAP
1 rx_data[2] 0.000303033
2 *1296:X 0.000303033
3 rx_data[2] *199:112 0
*RES
1 *1296:X rx_data[2] 20.8518 
*END

*D_NET *8 0.00135039
*CONN
*P rx_data[3] O
*I *1297:X O *D sky130_fd_sc_hd__clkbuf_4
*CAP
1 rx_data[3] 0.000675196
2 *1297:X 0.000675196
*RES
1 *1297:X rx_data[3] 26.7464 
*END

*D_NET *9 0.00117453
*CONN
*P rx_data[4] O
*I *1298:X O *D sky130_fd_sc_hd__clkbuf_4
*CAP
1 rx_data[4] 0.000587263
2 *1298:X 0.000587263
3 rx_data[4] *1277:A 0
*RES
1 *1298:X rx_data[4] 24.9786 
*END

*D_NET *10 0.00116977
*CONN
*P rx_data[5] O
*I *1299:X O *D sky130_fd_sc_hd__clkbuf_4
*CAP
1 rx_data[5] 0.000584885
2 *1299:X 0.000584885
3 rx_data[5] *211:25 0
*RES
1 *1299:X rx_data[5] 25.1036 
*END

*D_NET *11 0.000583134
*CONN
*P rx_data[6] O
*I *1300:X O *D sky130_fd_sc_hd__buf_2
*CAP
1 rx_data[6] 0.000291567
2 *1300:X 0.000291567
*RES
1 *1300:X rx_data[6] 18.8021 
*END

*D_NET *12 0.000971705
*CONN
*P rx_data[7] O
*I *1301:X O *D sky130_fd_sc_hd__clkbuf_4
*CAP
1 rx_data[7] 0.000459181
2 *1301:X 0.000459181
3 rx_data[7] *1301:A 5.33433e-05
*RES
1 *1301:X rx_data[7] 22.05 
*END

*D_NET *13 0.00143417
*CONN
*P rx_pin I
*I *1285:A I *D sky130_fd_sc_hd__clkbuf_1
*CAP
1 rx_pin 0.000717087
2 *1285:A 0.000717087
*RES
1 rx_pin *1285:A 27.5857 
*END

*D_NET *14 0.000702711
*CONN
*P rx_valid O
*I *1302:X O *D sky130_fd_sc_hd__clkbuf_4
*CAP
1 rx_valid 0.000351355
2 *1302:X 0.000351355
*RES
1 *1302:X rx_valid 20.6929 
*END

*D_NET *15 0.000601949
*CONN
*P tx_data[0] I
*I *1286:A I *D sky130_fd_sc_hd__buf_1
*CAP
1 tx_data[0] 0.000300975
2 *1286:A 0.000300975
3 *1286:A *199:101 0
*RES
1 tx_data[0] *1286:A 21.1554 
*END

*D_NET *16 0.00184625
*CONN
*P tx_data[1] I
*I *1287:A I *D sky130_fd_sc_hd__clkbuf_1
*CAP
1 tx_data[1] 0.000738497
2 *1287:A 0.000738497
3 *1287:A *1294:A 0.000144773
4 rx_data[0] *1287:A 0.000224478
*RES
1 tx_data[1] *1287:A 27.5393 
*END

*D_NET *17 0.000813598
*CONN
*P tx_data[2] I
*I *1288:A I *D sky130_fd_sc_hd__buf_1
*CAP
1 tx_data[2] 0.000406799
2 *1288:A 0.000406799
3 *1288:A *1041:C_N 0
*RES
1 tx_data[2] *1288:A 21.9607 
*END

*D_NET *18 0.000529725
*CONN
*P tx_data[3] I
*I *1289:A I *D sky130_fd_sc_hd__clkbuf_1
*CAP
1 tx_data[3] 0.000264862
2 *1289:A 0.000264862
*RES
1 tx_data[3] *1289:A 20.031 
*END

*D_NET *19 0.000565668
*CONN
*P tx_data[4] I
*I *1290:A I *D sky130_fd_sc_hd__clkbuf_1
*CAP
1 tx_data[4] 0.000282834
2 *1290:A 0.000282834
3 *1290:A *211:25 0
*RES
1 tx_data[4] *1290:A 20.3346 
*END

*D_NET *20 0.00117818
*CONN
*P tx_data[5] I
*I *1291:A I *D sky130_fd_sc_hd__clkbuf_1
*CAP
1 tx_data[5] 0.000559928
2 *1291:A 0.000559928
3 *1291:A *1244:A 0
4 *1291:A *1298:A 2.89114e-05
5 *1291:A *210:31 2.94103e-05
*RES
1 tx_data[5] *1291:A 24.9964 
*END

*D_NET *21 0.00109076
*CONN
*P tx_data[6] I
*I *1292:A I *D sky130_fd_sc_hd__clkbuf_1
*CAP
1 tx_data[6] 0.000542476
2 *1292:A 0.000542476
3 *1292:A *1077:A0 5.80706e-06
*RES
1 tx_data[6] *1292:A 24.3893 
*END

*D_NET *22 0.000813598
*CONN
*P tx_data[7] I
*I *1283:A I *D sky130_fd_sc_hd__clkbuf_1
*CAP
1 tx_data[7] 0.000406799
2 *1283:A 0.000406799
*RES
1 tx_data[7] *1283:A 21.9607 
*END

*D_NET *23 0.000487379
*CONN
*P tx_done O
*I *1303:X O *D sky130_fd_sc_hd__clkbuf_4
*CAP
1 tx_done 0.00024369
2 *1303:X 0.00024369
*RES
1 *1303:X tx_done 19.9411 
*END

*D_NET *24 0.00175179
*CONN
*P tx_pin O
*I *1304:X O *D sky130_fd_sc_hd__clkbuf_4
*CAP
1 tx_pin 0.000875894
2 *1304:X 0.000875894
*RES
1 *1304:X tx_pin 30.7286 
*END

*D_NET *25 0.000491596
*CONN
*P tx_start I
*I *1284:A I *D sky130_fd_sc_hd__buf_1
*CAP
1 tx_start 0.000245798
2 *1284:A 0.000245798
*RES
1 tx_start *1284:A 19.6024 
*END

*D_NET *26 0.000367286
*CONN
*I *1191:D I *D sky130_fd_sc_hd__dfxtp_1
*I *1066:X O *D sky130_fd_sc_hd__clkbuf_1
*CAP
1 *1191:D 0.000110031
2 *1066:X 0.000110031
3 *1191:D *1191:CLK 1.04232e-05
4 *1191:D *1192:CLK 7.70818e-05
5 *1191:D *201:130 3.18676e-05
6 *1191:D *201:139 2.78509e-05
*RES
1 *1066:X *1191:D 21.2607 
*END

*D_NET *27 0.000466644
*CONN
*I *1192:D I *D sky130_fd_sc_hd__dfxtp_1
*I *1068:X O *D sky130_fd_sc_hd__clkbuf_1
*CAP
1 *1192:D 0.000179043
2 *1068:X 0.000179043
3 *1192:D *1192:CLK 0.000108557
*RES
1 *1068:X *1192:D 21.1938 
*END

*D_NET *28 0.00035204
*CONN
*I *1193:D I *D sky130_fd_sc_hd__dfxtp_1
*I *1070:X O *D sky130_fd_sc_hd__clkbuf_1
*CAP
1 *1193:D 0.000135685
2 *1070:X 0.000135685
3 *1193:D *201:114 5.49489e-05
4 *1193:D *201:130 2.5722e-05
*RES
1 *1070:X *1193:D 21.0107 
*END

*D_NET *29 0.000679245
*CONN
*I *1194:D I *D sky130_fd_sc_hd__dfxtp_1
*I *1072:X O *D sky130_fd_sc_hd__clkbuf_1
*CAP
1 *1194:D 0.000229761
2 *1072:X 0.000229761
3 *1194:D *1098:A1 0.000140786
4 *1194:D *1194:CLK 7.89362e-05
*RES
1 *1072:X *1194:D 31.2295 
*END

*D_NET *30 0.000286958
*CONN
*I *1195:D I *D sky130_fd_sc_hd__dfxtp_1
*I *1074:X O *D sky130_fd_sc_hd__clkbuf_1
*CAP
1 *1195:D 0.000100446
2 *1074:X 0.000100446
3 *1195:D *1194:CLK 4.46186e-06
4 *1195:D *202:77 8.16036e-05
*RES
1 *1074:X *1195:D 29.7116 
*END

*D_NET *31 0.000463469
*CONN
*I *1196:D I *D sky130_fd_sc_hd__dfxtp_1
*I *1076:X O *D sky130_fd_sc_hd__clkbuf_1
*CAP
1 *1196:D 0.000188702
2 *1076:X 0.000188702
3 *1196:D *202:105 4.46186e-06
4 *1196:D *202:116 8.16036e-05
*RES
1 *1076:X *1196:D 30.658 
*END

*D_NET *32 0.000338065
*CONN
*I *1197:D I *D sky130_fd_sc_hd__dfxtp_1
*I *1078:X O *D sky130_fd_sc_hd__clkbuf_1
*CAP
1 *1197:D 0.000106635
2 *1078:X 0.000106635
3 *1197:D *1197:CLK 0.000124795
*RES
1 *1078:X *1197:D 21.2607 
*END

*D_NET *33 0.000339215
*CONN
*I *1198:D I *D sky130_fd_sc_hd__dfxtp_1
*I *1080:X O *D sky130_fd_sc_hd__clkbuf_1
*CAP
1 *1198:D 0.000105067
2 *1080:X 0.000105067
3 *1198:D *1198:CLK 0.00012908
*RES
1 *1080:X *1198:D 20.658 
*END

*D_NET *34 0.000586137
*CONN
*I *1202:D I *D sky130_fd_sc_hd__dfxtp_1
*I *1084:X O *D sky130_fd_sc_hd__clkbuf_1
*CAP
1 *1202:D 0.000224453
2 *1084:X 0.000224453
3 *1202:D *1084:A 1.24368e-05
4 *1202:D *201:84 0.000124795
*RES
1 *1084:X *1202:D 22.9036 
*END

*D_NET *35 0.00174625
*CONN
*I *1203:D I *D sky130_fd_sc_hd__dfxtp_1
*I *1085:X O *D sky130_fd_sc_hd__a32o_1
*CAP
1 *1203:D 0.000378028
2 *1085:X 0.000378028
3 *1203:D *1085:A3 4.72818e-05
4 *1203:D *1085:B2 0.0001399
5 *1203:D *1114:A 5.50052e-05
6 *1203:D *1114:B 0.000388143
7 *1203:D *1114:C 0.000206157
8 *1203:D *1117:A 5.52302e-05
9 *1203:D *1203:CLK 9.84729e-05
10 *1203:D *201:10 0
11 *1203:D *201:65 0
*RES
1 *1085:X *1203:D 37.6714 
*END

*D_NET *36 0.000815131
*CONN
*I *1204:D I *D sky130_fd_sc_hd__dfxtp_1
*I *1088:X O *D sky130_fd_sc_hd__o311a_1
*CAP
1 *1204:D 0.000181236
2 *1088:X 0.000181236
3 *1204:D *1088:A1 1.32293e-05
4 *1204:D *1088:C1 5.66971e-05
5 *1204:D *87:23 0.000256792
6 *1204:D *87:29 2.74737e-05
7 *1204:D *124:14 9.84673e-05
*RES
1 *1088:X *1204:D 22.6938 
*END

*D_NET *37 6.37568e-05
*CONN
*I *1254:A I *D sky130_fd_sc_hd__dlygate4sd3_1
*I *1089:X O *D sky130_fd_sc_hd__o22a_1
*CAP
1 *1254:A 3.18784e-05
2 *1089:X 3.18784e-05
*RES
1 *1089:X *1254:A 19.1357 
*END

*D_NET *38 0.000528755
*CONN
*I *1206:D I *D sky130_fd_sc_hd__dfxtp_1
*I *1091:X O *D sky130_fd_sc_hd__o21ba_1
*CAP
1 *1206:D 0.000150167
2 *1091:X 0.000150167
3 *1206:D *1099:A2 4.71964e-05
4 *1206:D *77:40 5.52238e-05
5 *1206:D *126:12 2.27416e-05
6 *1206:D *202:51 0.00010326
*RES
1 *1091:X *1206:D 30.8902 
*END

*D_NET *39 0.000462097
*CONN
*I *1207:D I *D sky130_fd_sc_hd__dfxtp_1
*I *1093:X O *D sky130_fd_sc_hd__o21a_1
*CAP
1 *1207:D 0.000201316
2 *1093:X 0.000201316
3 *1207:D *1253:A 2.94194e-05
4 *1207:D *300:10 3.00447e-05
*RES
1 *1093:X *1207:D 30.9438 
*END

*D_NET *40 0.000435384
*CONN
*I *1208:D I *D sky130_fd_sc_hd__dfxtp_1
*I *1097:Y O *D sky130_fd_sc_hd__nor2_1
*CAP
1 *1208:D 0.00014127
2 *1097:Y 0.00014127
3 *1208:D *202:43 0.000133463
4 *1208:D *218:12 1.93817e-05
*RES
1 *1097:Y *1208:D 30.283 
*END

*D_NET *41 0.000846993
*CONN
*I *1209:D I *D sky130_fd_sc_hd__dfxtp_1
*I *1103:X O *D sky130_fd_sc_hd__a22o_1
*CAP
1 *1209:D 0.000279554
2 *1103:X 0.000279554
3 *1209:D *1209:CLK 0.000185403
4 *1209:D *1261:A 2.33386e-05
5 *1209:D *200:101 1.46689e-05
6 *1209:D *200:112 6.4474e-05
*RES
1 *1103:X *1209:D 33.2786 
*END

*D_NET *42 0.000619254
*CONN
*I *1276:A I *D sky130_fd_sc_hd__dlygate4sd3_1
*I *1104:X O *D sky130_fd_sc_hd__o22a_1
*CAP
1 *1276:A 0.000265043
2 *1104:X 0.000265043
3 *1276:A *1104:A1 2.84109e-05
4 *1276:A *1104:B1 5.62995e-05
5 *1276:A *1104:B2 4.45768e-06
6 *1276:A *200:112 0
*RES
1 *1104:X *1276:A 31.4214 
*END

*D_NET *43 0.000294998
*CONN
*I *1214:D I *D sky130_fd_sc_hd__dfxtp_1
*I *1107:X O *D sky130_fd_sc_hd__clkbuf_1
*CAP
1 *1214:D 0.000147499
2 *1107:X 0.000147499
*RES
1 *1107:X *1214:D 29.9259 
*END

*D_NET *44 0.000241403
*CONN
*I *1215:D I *D sky130_fd_sc_hd__dfxtp_1
*I *1110:X O *D sky130_fd_sc_hd__clkbuf_1
*CAP
1 *1215:D 6.71474e-05
2 *1110:X 6.71474e-05
3 *1215:D *1053:A0 0.000101777
4 *1215:D *1215:CLK 5.33091e-06
*RES
1 *1110:X *1215:D 29.1045 
*END

*D_NET *45 0.00050929
*CONN
*I *1216:D I *D sky130_fd_sc_hd__dfxtp_1
*I *1113:X O *D sky130_fd_sc_hd__clkbuf_1
*CAP
1 *1216:D 9.20168e-05
2 *1113:X 9.20168e-05
3 *1216:D *1053:A1 0.000175519
4 *1216:D *1113:A 9.24395e-05
5 *1216:D *1230:CLK 5.7298e-05
*RES
1 *1113:X *1216:D 30.4259 
*END

*D_NET *46 0.000393871
*CONN
*I *1217:D I *D sky130_fd_sc_hd__dfxtp_1
*I *1116:X O *D sky130_fd_sc_hd__clkbuf_1
*CAP
1 *1217:D 0.000132558
2 *1116:X 0.000132558
3 *1217:D *200:25 0.000128755
*RES
1 *1116:X *1217:D 21.0688 
*END

*D_NET *47 0.00058037
*CONN
*I *1218:D I *D sky130_fd_sc_hd__dfxtp_1
*I *1119:X O *D sky130_fd_sc_hd__clkbuf_1
*CAP
1 *1218:D 0.00018975
2 *1119:X 0.00018975
3 *1218:D *1119:A 6.14094e-05
4 *1218:D *1218:CLK 8.52807e-05
5 *1218:D *140:12 5.41794e-05
*RES
1 *1119:X *1218:D 30.6357 
*END

*D_NET *48 0.000441464
*CONN
*I *1219:D I *D sky130_fd_sc_hd__dfxtp_1
*I *1122:X O *D sky130_fd_sc_hd__clkbuf_1
*CAP
1 *1219:D 0.000160332
2 *1122:X 0.000160332
3 *1219:D *1065:A0 0.000101771
4 *1219:D *1121:A1 1.90303e-05
*RES
1 *1122:X *1219:D 30.3366 
*END

*D_NET *49 0.000319706
*CONN
*I *1220:D I *D sky130_fd_sc_hd__dfxtp_1
*I *1125:X O *D sky130_fd_sc_hd__clkbuf_1
*CAP
1 *1220:D 0.000121778
2 *1125:X 0.000121778
3 *1220:D *1214:CLK 5.33005e-05
4 *1220:D *201:43 2.28499e-05
*RES
1 *1125:X *1220:D 20.658 
*END

*D_NET *50 0.000267562
*CONN
*I *1221:D I *D sky130_fd_sc_hd__dfxtp_1
*I *1127:X O *D sky130_fd_sc_hd__clkbuf_1
*CAP
1 *1221:D 0.000133781
2 *1127:X 0.000133781
3 *1221:D *204:12 0
4 *1221:D *247:16 0
*RES
1 *1127:X *1221:D 29.8143 
*END

*D_NET *51 0.000441058
*CONN
*I *1222:D I *D sky130_fd_sc_hd__dfxtp_1
*I *1132:X O *D sky130_fd_sc_hd__clkbuf_1
*CAP
1 *1222:D 0.000206562
2 *1132:X 0.000206562
3 *1222:D *1222:CLK 2.7933e-05
*RES
1 *1132:X *1222:D 21.0688 
*END

*D_NET *52 0.000546389
*CONN
*I *1281:A I *D sky130_fd_sc_hd__dlygate4sd3_1
*I *1135:X O *D sky130_fd_sc_hd__a32o_1
*CAP
1 *1281:A 0.000187372
2 *1135:X 0.000187372
3 *1281:A *1223:D 0
4 *1281:A *200:50 0.00015166
5 *1281:A *280:6 1.99856e-05
*RES
1 *1135:X *1281:A 30.6 
*END

*D_NET *53 0.00116077
*CONN
*I *1224:D I *D sky130_fd_sc_hd__dfxtp_1
*I *1139:X O *D sky130_fd_sc_hd__a32o_1
*CAP
1 *1224:D 0.000421602
2 *1139:X 0.000421602
3 *1224:D *281:12 0.000317566
*RES
1 *1139:X *1224:D 26.5688 
*END

*D_NET *54 0.000722249
*CONN
*I *1225:D I *D sky130_fd_sc_hd__dfxtp_1
*I *1142:X O *D sky130_fd_sc_hd__a32o_1
*CAP
1 *1225:D 0.000296747
2 *1142:X 0.000296747
3 *1225:D *1225:CLK 0.000128755
*RES
1 *1142:X *1225:D 31.9259 
*END

*D_NET *55 0.000685996
*CONN
*I *1226:D I *D sky130_fd_sc_hd__dfxtp_1
*I *1147:X O *D sky130_fd_sc_hd__a21o_1
*CAP
1 *1226:D 0.000203711
2 *1147:X 0.000203711
3 *1226:D *1147:A1 0
4 *1226:D *200:129 0.000278574
*RES
1 *1147:X *1226:D 31.5688 
*END

*D_NET *56 0.000283368
*CONN
*I *1227:D I *D sky130_fd_sc_hd__dfxtp_1
*I *1150:X O *D sky130_fd_sc_hd__clkbuf_1
*CAP
1 *1227:D 0.000127233
2 *1150:X 0.000127233
3 *1227:D *1227:CLK 2.89016e-05
*RES
1 *1150:X *1227:D 20.658 
*END

*D_NET *57 0.00104802
*CONN
*I *1228:D I *D sky130_fd_sc_hd__dfxtp_1
*I *1154:X O *D sky130_fd_sc_hd__a21o_1
*CAP
1 *1228:D 0.00048003
2 *1154:X 0.00048003
3 *1228:D *1154:A2 2.85234e-05
4 *1228:D *1156:A1 6.05161e-06
5 *1228:D *210:31 0
6 *1228:D *229:10 5.33882e-05
*RES
1 *1154:X *1228:D 34.158 
*END

*D_NET *58 0.00114431
*CONN
*I *1229:D I *D sky130_fd_sc_hd__dfxtp_1
*I *1157:X O *D sky130_fd_sc_hd__clkbuf_1
*CAP
1 *1229:D 0.000446235
2 *1157:X 0.000446235
3 *1229:D *1229:CLK 0.000102589
4 *1229:D *202:116 0.00014925
*RES
1 *1157:X *1229:D 34.3545 
*END

*D_NET *59 0.000382254
*CONN
*I *1230:D I *D sky130_fd_sc_hd__dfxtp_1
*I *1161:X O *D sky130_fd_sc_hd__clkbuf_1
*CAP
1 *1230:D 0.000174209
2 *1161:X 0.000174209
3 *1230:D *1112:S 7.99677e-06
4 *1230:D *1161:A 2.09634e-05
5 *1230:D *105:126 4.87669e-06
*RES
1 *1161:X *1230:D 30.2473 
*END

*D_NET *60 0.00129365
*CONN
*I *1231:D I *D sky130_fd_sc_hd__dfxtp_1
*I *1165:X O *D sky130_fd_sc_hd__a32o_1
*CAP
1 *1231:D 0.000636169
2 *1165:X 0.000636169
3 *1231:D *1115:A1 0
4 *1231:D *1115:S 1.64343e-05
5 *1231:D *1165:B2 0
6 *1231:D *1231:CLK 4.87669e-06
7 *1231:D *173:57 0
8 *1231:D *200:8 0
9 *1231:D *200:21 0
*RES
1 *1165:X *1231:D 38.2473 
*END

*D_NET *61 0.000521956
*CONN
*I *1232:D I *D sky130_fd_sc_hd__dfxtp_1
*I *1170:X O *D sky130_fd_sc_hd__clkbuf_1
*CAP
1 *1232:D 0.000128486
2 *1170:X 0.000128486
3 *1232:D *1115:S 5.71472e-05
4 *1232:D *1168:B1 0.000123556
5 *1232:D *1200:CLK 8.42801e-05
*RES
1 *1170:X *1232:D 30.283 
*END

*D_NET *62 0.00217852
*CONN
*I *1233:D I *D sky130_fd_sc_hd__dfxtp_1
*I *1172:X O *D sky130_fd_sc_hd__a22o_1
*CAP
1 *1233:D 0.00066397
2 *1172:X 0.00066397
3 *1233:D *1112:S 3.02124e-05
4 *1233:D *1118:A0 0.000719294
5 *1233:D *1119:A 2.27187e-05
6 *1233:D *1269:A 7.83587e-05
7 *1233:D *140:12 0
*RES
1 *1172:X *1233:D 39.408 
*END

*D_NET *63 0.00100186
*CONN
*I *1234:D I *D sky130_fd_sc_hd__dfxtp_1
*I *1178:X O *D sky130_fd_sc_hd__o22a_1
*CAP
1 *1234:D 0.000304829
2 *1178:X 0.000304829
3 *1234:D *1165:A2 0.000115614
4 *1234:D *185:22 0.00027659
5 *1234:D *199:14 0
6 *1234:D *270:16 0
*RES
1 *1178:X *1234:D 34.6045 
*END

*D_NET *64 0.000906288
*CONN
*I *1235:D I *D sky130_fd_sc_hd__dfxtp_1
*I *1181:X O *D sky130_fd_sc_hd__a32o_1
*CAP
1 *1235:D 0.000443905
2 *1181:X 0.000443905
3 *1235:D *270:8 1.84776e-05
*RES
1 *1181:X *1235:D 34.4437 
*END

*D_NET *65 0.000988869
*CONN
*I *1236:D I *D sky130_fd_sc_hd__dfxtp_2
*I *1185:X O *D sky130_fd_sc_hd__o21a_1
*CAP
1 *1236:D 0.000240843
2 *1185:X 0.000240843
3 *1236:D *199:95 0.000450883
4 *1236:D *271:8 5.62995e-05
*RES
1 *1185:X *1236:D 24.5152 
*END

*D_NET *66 0.000430426
*CONN
*I *1237:D I *D sky130_fd_sc_hd__dfxtp_2
*I *1190:X O *D sky130_fd_sc_hd__o22a_1
*CAP
1 *1237:D 0.000215213
2 *1190:X 0.000215213
3 *1237:D *199:34 0
*RES
1 *1190:X *1237:D 30.4616 
*END

*D_NET *67 0.000528008
*CONN
*I *1211:D I *D sky130_fd_sc_hd__dfxtp_2
*I *1057:X O *D sky130_fd_sc_hd__clkbuf_1
*CAP
1 *1211:D 0.000264004
2 *1057:X 0.000264004
3 *1211:D *1041:A 0
*RES
1 *1057:X *1211:D 31.6938 
*END

*D_NET *68 0.000550887
*CONN
*I *1212:D I *D sky130_fd_sc_hd__dfxtp_2
*I *1061:X O *D sky130_fd_sc_hd__a311o_1
*CAP
1 *1212:D 0.000265559
2 *1061:X 0.000265559
3 *1212:D *1041:C_N 0
4 *1212:D *1063:D 0
5 *1212:D *1212:CLK 1.97695e-05
6 *1212:D *277:25 0
7 *1212:D *278:25 0
*RES
1 *1061:X *1212:D 32.2429 
*END

*D_NET *69 0.00191387
*CONN
*I *1213:D I *D sky130_fd_sc_hd__dfxtp_2
*I *1089:B2 I *D sky130_fd_sc_hd__o22a_1
*I *1064:X O *D sky130_fd_sc_hd__clkbuf_1
*CAP
1 *1213:D 8.91718e-05
2 *1089:B2 0.000252465
3 *1064:X 0.000325405
4 *69:10 0.000667041
5 *1089:B2 *1089:A1 0
6 *1089:B2 *1089:A2 7.43578e-06
7 *1089:B2 *1089:B1 0
8 *1213:D *1212:CLK 0.000231818
9 *69:10 *1063:A_N 0.000117868
10 *69:10 *1063:B 1.19309e-05
11 *69:10 *1063:C 0.0001399
12 *69:10 *1063:D 1.56e-05
13 *69:10 *1064:A 5.52302e-05
14 *69:10 *1089:A1 0
15 *69:10 *1089:B1 0
*RES
1 *1064:X *69:10 20.0679 
2 *69:10 *1089:B2 17.7286 
3 *69:10 *1213:D 16.0187 
*END

*D_NET *70 0.000313499
*CONN
*I *1199:D I *D sky130_fd_sc_hd__dfxtp_2
*I *1028:X O *D sky130_fd_sc_hd__a221o_1
*CAP
1 *1199:D 0.000141724
2 *1028:X 0.000141724
3 *1199:D *77:10 3.00522e-05
4 *1199:D *80:42 0
*RES
1 *1028:X *1199:D 29.9259 
*END

*D_NET *71 0.000296755
*CONN
*I *1200:D I *D sky130_fd_sc_hd__dfxtp_1
*I *1033:X O *D sky130_fd_sc_hd__clkbuf_1
*CAP
1 *1200:D 0.000148377
2 *1033:X 0.000148377
3 *1200:D *1242:A 0
*RES
1 *1033:X *1200:D 30.3723 
*END

*D_NET *72 0.00107152
*CONN
*I *1271:A I *D sky130_fd_sc_hd__dlygate4sd3_1
*I *1104:B2 I *D sky130_fd_sc_hd__o22a_1
*I *1035:Y O *D sky130_fd_sc_hd__nor3b_1
*CAP
1 *1271:A 0.000185366
2 *1104:B2 0.00019549
3 *1035:Y 0
4 *72:4 0.000380856
5 *1104:B2 *1104:A1 1.21258e-05
6 *1104:B2 *1104:A2 9.77118e-05
7 *1271:A *1104:A2 0.000140815
8 *1271:A *290:93 5.47029e-05
9 *1276:A *1104:B2 4.45768e-06
*RES
1 *1035:Y *72:4 9.3 
2 *72:4 *1104:B2 12.1036 
3 *72:4 *1271:A 21.3 
*END

*D_NET *73 0.00446942
*CONN
*I *1023:C I *D sky130_fd_sc_hd__and4_1
*I *1020:C I *D sky130_fd_sc_hd__nand3_2
*I *1019:X O *D sky130_fd_sc_hd__a21o_1
*CAP
1 *1023:C 0.00011478
2 *1020:C 0
3 *1019:X 0.00145688
4 *73:18 0.00157166
5 *1023:C *1023:A 7.32272e-05
6 *1023:C *1023:B 0.000125057
7 *73:18 *1023:A 0.00057022
8 *73:18 *1145:B1 0.000359851
9 *73:18 *1148:A 0
10 *73:18 *164:12 3.78739e-05
11 *73:18 *210:31 7.90803e-05
12 *73:18 *286:21 8.07879e-05
*RES
1 *1019:X *73:18 47.7643 
2 *73:18 *1020:C 9.3 
3 *73:18 *1023:C 12.3179 
*END

*D_NET *74 0.00720018
*CONN
*I *1028:A1 I *D sky130_fd_sc_hd__a221o_1
*I *1031:C I *D sky130_fd_sc_hd__or4b_1
*I *1148:A I *D sky130_fd_sc_hd__and3_1
*I *1129:A I *D sky130_fd_sc_hd__and2_1
*I *1035:B I *D sky130_fd_sc_hd__nor3b_1
*I *1029:B I *D sky130_fd_sc_hd__and3_1
*I *1020:Y O *D sky130_fd_sc_hd__nand3_2
*CAP
1 *1028:A1 0.000494375
2 *1031:C 0
3 *1148:A 0.0004317
4 *1129:A 2.65071e-05
5 *1035:B 2.59004e-05
6 *1029:B 9.50452e-05
7 *1020:Y 0.000324789
8 *74:54 0.000751246
9 *74:41 0.00043615
10 *74:39 0.000360786
11 *74:16 0.000491529
12 *74:14 0.000972073
13 *1028:A1 *1028:B2 3.82227e-06
14 *1028:A1 *1028:C1 7.16452e-05
15 *1028:A1 *75:16 4.4475e-05
16 *1028:A1 *290:59 3.67142e-05
17 *1029:B *291:67 9.90367e-05
18 *1035:B *1035:A 5.65955e-05
19 *1035:B *1035:C_N 2.27416e-05
20 *1035:B *1104:A2 0.000144075
21 *1129:A *153:10 2.84109e-05
22 *1148:A *1148:B 0
23 *1148:A *162:30 5.65955e-05
24 *74:14 *1020:A 5.52302e-05
25 *74:14 *1023:A 1.74352e-05
26 *74:14 *1155:B 5.33882e-05
27 *74:14 *76:25 0.000466964
28 *74:14 *210:31 0
29 *74:14 *290:10 5.97719e-05
30 *74:14 *290:12 3.17067e-05
31 *74:16 *290:59 8.18783e-05
32 *74:39 *1031:A 5.08284e-05
33 *74:39 *1032:A 0
34 *74:39 *83:101 3.17148e-05
35 *74:39 *83:122 2.04825e-05
36 *74:39 *290:59 0.000313929
37 *74:39 *291:67 0.000274288
38 *74:41 *1031:A 5.52238e-05
39 *74:41 *1035:C_N 0.000149082
40 *74:41 *1104:A2 0.000433495
41 *74:41 *290:59 7.22263e-05
42 *74:54 *1035:C_N 5.83233e-05
43 *74:54 *290:67 0
44 *73:18 *1148:A 0
*RES
1 *1020:Y *74:14 27.0857 
2 *74:14 *74:16 2.17857 
3 *74:16 *1029:B 10.6571 
4 *74:16 *74:39 15.375 
5 *74:39 *74:41 5.05357 
6 *74:41 *1035:B 10.6571 
7 *74:41 *74:54 9.91071 
8 *74:54 *1129:A 14.3357 
9 *74:54 *1148:A 20.5679 
10 *74:39 *1031:C 9.3 
11 *74:14 *1028:A1 15.8 
*END

*D_NET *75 0.00539389
*CONN
*I *1028:A2 I *D sky130_fd_sc_hd__a221o_1
*I *1128:A I *D sky130_fd_sc_hd__or2_1
*I *1029:C I *D sky130_fd_sc_hd__and3_1
*I *1035:C_N I *D sky130_fd_sc_hd__nor3b_1
*I *1021:X O *D sky130_fd_sc_hd__and2b_1
*CAP
1 *1028:A2 8.01948e-06
2 *1128:A 0.000272748
3 *1029:C 0
4 *1035:C_N 0.000623753
5 *1021:X 0.000370835
6 *75:18 0.000726746
7 *75:16 0.00104681
8 *75:12 0.00104992
9 *1035:C_N *290:59 0.000338593
10 *1128:A *1155:B 2.89016e-05
11 *1128:A *76:25 0
12 *1128:A *83:122 0
13 *75:12 *1028:B1 0.000177364
14 *75:12 *1028:B2 0
15 *75:12 *1096:B2 0.000180212
16 *75:16 *1027:A 2.59355e-05
17 *75:16 *1028:B2 6.26774e-06
18 *75:16 *1028:C1 3.11885e-05
19 *75:16 *290:59 0.000158971
20 *75:18 *290:59 7.30065e-05
21 *1028:A1 *75:16 4.4475e-05
22 *1035:B *1035:C_N 2.27416e-05
23 *74:41 *1035:C_N 0.000149082
24 *74:54 *1035:C_N 5.83233e-05
*RES
1 *1021:X *75:12 25.1929 
2 *75:12 *75:16 8.66071 
3 *75:16 *75:18 1.42857 
4 *75:18 *1035:C_N 27.3 
5 *75:18 *1029:C 9.3 
6 *75:16 *1128:A 23.2107 
7 *75:12 *1028:A2 9.44732 
*END

*D_NET *76 0.00386071
*CONN
*I *1023:D I *D sky130_fd_sc_hd__and4_1
*I *1128:B I *D sky130_fd_sc_hd__or2_1
*I *1032:A I *D sky130_fd_sc_hd__or3b_1
*I *1022:Y O *D sky130_fd_sc_hd__nor3b_1
*CAP
1 *1023:D 0.000456994
2 *1128:B 6.2687e-05
3 *1032:A 0.000427723
4 *1022:Y 0
5 *76:25 0.00092201
6 *76:4 0.000830052
7 *1023:D *77:10 0
8 *1023:D *80:42 0.000126639
9 *1023:D *210:31 0
10 *1032:A *1021:A_N 5.23735e-05
11 *1032:A *1022:B 1.62025e-05
12 *1032:A *83:101 3.44784e-05
13 *1032:A *291:47 0
14 *1032:A *292:19 0.000170254
15 *1128:B *1155:B 0.00010096
16 *76:25 *1021:A_N 0.000100006
17 *76:25 *1029:A 0
18 *76:25 *290:12 3.65451e-05
19 *76:25 *290:14 5.68259e-05
20 *76:25 *291:47 0
21 *1128:A *76:25 0
22 *74:14 *76:25 0.000466964
23 *74:39 *1032:A 0
*RES
1 *1022:Y *76:4 9.3 
2 *76:4 *1032:A 24.7107 
3 *76:4 *76:25 18.5357 
4 *76:25 *1128:B 10.6571 
5 *76:25 *1023:D 25.6393 
*END

*D_NET *77 0.00525423
*CONN
*I *1091:A2 I *D sky130_fd_sc_hd__o21ba_1
*I *1090:A2 I *D sky130_fd_sc_hd__o21a_1
*I *1096:A2 I *D sky130_fd_sc_hd__o22a_1
*I *1028:B1 I *D sky130_fd_sc_hd__a221o_1
*I *1023:X O *D sky130_fd_sc_hd__and4_1
*CAP
1 *1091:A2 0
2 *1090:A2 5.90848e-05
3 *1096:A2 0
4 *1028:B1 0.000287923
5 *1023:X 0.000469751
6 *77:40 0.000583307
7 *77:14 0.000408299
8 *77:10 0.00111435
9 *1028:B1 *1028:B2 7.8327e-05
10 *1028:B1 *1090:A1 2.50972e-05
11 *1028:B1 *1096:B2 4.10026e-05
12 *1090:A2 *1090:A1 9.8621e-05
13 *1090:A2 *1091:A1 2.32013e-05
14 *1090:A2 *1091:B1_N 3.37729e-05
15 *1090:A2 *126:6 0.000185221
16 *1090:A2 *202:77 7.48301e-06
17 *77:10 *202:105 0.000170767
18 *77:40 *1091:A1 1.97695e-05
19 *77:40 *1091:B1_N 5.71472e-05
20 *77:40 *126:6 1.74903e-05
21 *77:40 *126:12 0.000213071
22 *77:40 *202:47 0.000884732
23 *77:40 *202:77 0.000213179
24 *1023:D *77:10 0
25 *1199:D *77:10 3.00522e-05
26 *1206:D *77:40 5.52238e-05
27 *75:12 *1028:B1 0.000177364
*RES
1 *1023:X *77:10 22.0679 
2 *77:10 *77:14 6.44643 
3 *77:14 *1028:B1 23.2464 
4 *77:14 *1096:A2 9.3 
5 *77:10 *77:40 19.4464 
6 *77:40 *1090:A2 11.8 
7 *77:40 *1091:A2 9.3 
*END

*D_NET *78 0.00462429
*CONN
*I *1096:B1 I *D sky130_fd_sc_hd__o22a_1
*I *1028:B2 I *D sky130_fd_sc_hd__a221o_1
*I *1024:X O *D sky130_fd_sc_hd__and3_1
*CAP
1 *1096:B1 1.16178e-05
2 *1028:B2 0.000501322
3 *1024:X 0.000876007
4 *78:10 0.00138895
5 *1028:B2 *1090:A1 1.10859e-05
6 *1028:B2 *1096:B2 0.000497121
7 *1028:B2 *79:18 0
8 *1028:B2 *80:42 4.46186e-06
9 *1028:B2 *80:48 0.000138618
10 *1096:B1 *1096:B2 2.53134e-05
11 *78:10 *1024:C 0.000328901
12 *78:10 *1090:A1 7.78305e-05
13 *78:10 *1094:A1 4.63219e-05
14 *78:10 *1094:B1 0.000443618
15 *78:10 *1097:A 8.47277e-05
16 *78:10 *1097:B 9.99853e-05
17 *1028:A1 *1028:B2 3.82227e-06
18 *1028:B1 *1028:B2 7.8327e-05
19 *75:12 *1028:B2 0
20 *75:16 *1028:B2 6.26774e-06
*RES
1 *1024:X *78:10 22.7107 
2 *78:10 *1028:B2 27.3759 
3 *78:10 *1096:B1 9.72857 
*END

*D_NET *79 0.00556619
*CONN
*I *1293:A I *D sky130_fd_sc_hd__clkbuf_2
*I *1090:A1 I *D sky130_fd_sc_hd__o21a_1
*I *1096:A1 I *D sky130_fd_sc_hd__o22a_1
*I *1025:Y O *D sky130_fd_sc_hd__nor3_1
*CAP
1 *1293:A 0.000130924
2 *1090:A1 0.00113289
3 *1096:A1 0
4 *1025:Y 0.000521363
5 *79:18 0.00126843
6 *79:12 0.000787821
7 *1090:A1 *1024:A 5.13373e-05
8 *1090:A1 *1024:C 5.74639e-05
9 *1090:A1 *1091:A1 3.13687e-05
10 *1090:A1 *1094:A1 1.39726e-05
11 *1090:A1 *1096:B2 9.79376e-05
12 *1090:A1 *1097:A 0.00017216
13 *1090:A1 *1097:B 9.99853e-05
14 *1090:A1 *1099:A2 6.42242e-05
15 *1090:A1 *1246:A 0.00036192
16 *1090:A1 *202:77 1.34631e-05
17 *1090:A1 *289:36 5.41609e-05
18 *1293:A *202:32 9.61602e-05
19 *79:12 *1025:B 0.000175403
20 *79:12 *202:32 8.20629e-05
21 *79:12 *210:31 0.000121488
22 *79:12 *290:14 1.90223e-05
23 *1028:B1 *1090:A1 2.50972e-05
24 *1028:B2 *1090:A1 1.10859e-05
25 *1028:B2 *79:18 0
26 *1090:A2 *1090:A1 9.8621e-05
27 *78:10 *1090:A1 7.78305e-05
*RES
1 *1025:Y *79:12 28.8536 
2 *79:12 *79:18 10.9464 
3 *79:18 *1096:A1 9.3 
4 *79:18 *1090:A1 37.2107 
5 *79:12 *1293:A 11.8893 
*END

*D_NET *80 0.0155302
*CONN
*I *1077:S I *D sky130_fd_sc_hd__mux2_1
*I *1075:S I *D sky130_fd_sc_hd__mux2_1
*I *1027:A I *D sky130_fd_sc_hd__inv_2
*I *1067:S I *D sky130_fd_sc_hd__mux2_1
*I *1065:S I *D sky130_fd_sc_hd__mux2_1
*I *1069:S I *D sky130_fd_sc_hd__mux2_1
*I *1079:S I *D sky130_fd_sc_hd__mux2_1
*I *1073:S I *D sky130_fd_sc_hd__mux2_1
*I *1071:S I *D sky130_fd_sc_hd__mux2_1
*I *1026:Y O *D sky130_fd_sc_hd__nand2_4
*CAP
1 *1077:S 7.33757e-05
2 *1075:S 0
3 *1027:A 2.04425e-05
4 *1067:S 0.000498238
5 *1065:S 0
6 *1069:S 0
7 *1079:S 0
8 *1073:S 0
9 *1071:S 0
10 *1026:Y 0.000145125
11 *80:68 0.00092746
12 *80:61 0.00100621
13 *80:48 0.00125531
14 *80:42 0.00137233
15 *80:36 0.00114413
16 *80:34 0.00147876
17 *80:21 0.00133145
18 *80:10 0.000541752
19 *1027:A *1028:C1 5.33005e-05
20 *1067:S *1065:A1 0.000346044
21 *1067:S *1067:A0 0.000100115
22 *1067:S *1068:A 5.4959e-05
23 *1077:S *1099:A2 8.2731e-05
24 *1077:S *1197:CLK 0.000225307
25 *80:10 *1098:A1 0.000200143
26 *80:10 *211:25 0.000200143
27 *80:21 *1098:A1 0.000329778
28 *80:21 *211:25 0.000939056
29 *80:34 *1073:A0 9.1799e-05
30 *80:34 *1073:A1 3.69697e-05
31 *80:34 *211:25 0.000210291
32 *80:36 *1075:A1 4.01768e-05
33 *80:42 *1075:A1 2.27416e-05
34 *80:42 *1076:A 5.26625e-05
35 *80:42 *210:31 0.000360568
36 *80:48 *1080:A 1.58163e-05
37 *80:48 *210:31 0.00116645
38 *80:61 *204:12 0
39 *80:68 *1065:A1 5.66971e-05
40 *80:68 *1066:A 0.000118599
41 *80:68 *1264:A 9.84673e-05
42 *80:68 *247:16 0.000402276
43 *1023:D *80:42 0.000126639
44 *1028:B2 *80:42 4.46186e-06
45 *1028:B2 *80:48 0.000138618
46 *1199:D *80:42 0
47 *1238:A *80:48 0.000234858
48 *75:16 *1027:A 2.59355e-05
*RES
1 *1026:Y *80:10 17.7107 
2 *80:10 *1071:S 13.8 
3 *80:10 *80:21 12.5 
4 *80:21 *1073:S 13.8 
5 *80:21 *80:34 22.3393 
6 *80:34 *80:36 7.92857 
7 *80:36 *80:42 18.3393 
8 *80:42 *80:48 22.5 
9 *80:48 *1079:S 9.3 
10 *80:48 *80:61 18.6964 
11 *80:61 *1069:S 9.3 
12 *80:61 *80:68 9.57143 
13 *80:68 *1065:S 9.3 
14 *80:68 *1067:S 19.6929 
15 *80:42 *1027:A 14.3357 
16 *80:36 *1075:S 9.3 
17 *80:34 *1077:S 21.1571 
*END

*D_NET *81 0.00028954
*CONN
*I *1028:C1 I *D sky130_fd_sc_hd__a221o_1
*I *1027:Y O *D sky130_fd_sc_hd__inv_2
*CAP
1 *1028:C1 6.67029e-05
2 *1027:Y 6.67029e-05
3 *1027:A *1028:C1 5.33005e-05
4 *1028:A1 *1028:C1 7.16452e-05
5 *75:16 *1028:C1 3.11885e-05
*RES
1 *1027:Y *1028:C1 20.3857 
*END

*D_NET *82 0.000168296
*CONN
*I *1032:B I *D sky130_fd_sc_hd__or3b_1
*I *1029:X O *D sky130_fd_sc_hd__and3_1
*CAP
1 *1032:B 4.41076e-05
2 *1029:X 4.41076e-05
3 *1032:B *1032:C_N 8.00806e-05
4 *1032:B *291:47 0
*RES
1 *1029:X *1032:B 28.6357 
*END

*D_NET *83 0.0130287
*CONN
*I *1152:B1 I *D sky130_fd_sc_hd__a21o_1
*I *1145:B1 I *D sky130_fd_sc_hd__a21o_1
*I *1031:A I *D sky130_fd_sc_hd__or4b_1
*I *1102:B1 I *D sky130_fd_sc_hd__a21oi_1
*I *1095:A I *D sky130_fd_sc_hd__or3_1
*I *1103:A1 I *D sky130_fd_sc_hd__a22o_1
*I *1139:B2 I *D sky130_fd_sc_hd__a32o_1
*I *1142:B2 I *D sky130_fd_sc_hd__a32o_1
*I *1135:B2 I *D sky130_fd_sc_hd__a32o_1
*I *1131:A1 I *D sky130_fd_sc_hd__mux2_1
*I *1030:X O *D sky130_fd_sc_hd__buf_2
*CAP
1 *1152:B1 0.000373475
2 *1145:B1 0.000581146
3 *1031:A 9.22998e-05
4 *1102:B1 0
5 *1095:A 5.89313e-05
6 *1103:A1 2.13113e-05
7 *1139:B2 3.41324e-05
8 *1142:B2 0.000386446
9 *1135:B2 1.1624e-05
10 *1131:A1 7.94451e-05
11 *1030:X 6.68564e-05
12 *83:122 0.00134307
13 *83:101 0.000698283
14 *83:48 0.000710806
15 *83:37 0.000678537
16 *83:26 0.00145566
17 *83:24 0.00116583
18 *83:20 0.000247592
19 *83:16 0.00070606
20 *83:6 0.000946779
21 *1031:A *290:59 0.000161246
22 *1095:A *1035:A 5.37741e-06
23 *1095:A *86:12 5.52302e-05
24 *1095:A *290:93 6.24558e-05
25 *1131:A1 *1131:S 4.93118e-06
26 *1135:B2 *1135:A3 5.52238e-05
27 *1135:B2 *1135:B1 5.52238e-05
28 *1139:B2 *1136:B1 2.14658e-05
29 *1139:B2 *1139:B1 5.52302e-05
30 *1139:B2 *281:12 4.58194e-05
31 *1142:B2 *1138:A 0.000127939
32 *1142:B2 *1139:A3 0.000146474
33 *1142:B2 *1142:A1 4.79864e-05
34 *1142:B2 *1142:B1 5.66971e-05
35 *1142:B2 *153:37 0.000153421
36 *1142:B2 *209:16 0
37 *1142:B2 *282:16 0
38 *1145:B1 *164:12 1.92905e-05
39 *1152:B1 *1148:B 0
40 *1152:B1 *1151:B 0.000172884
41 *1152:B1 *1152:A1 2.60585e-05
42 *1152:B1 *1152:A2 7.97268e-05
43 *1152:B1 *1153:C 6.3649e-05
44 *1152:B1 *1154:B1 5.4959e-05
45 *1152:B1 *153:90 0.000339697
46 *1152:B1 *168:14 6.93626e-06
47 *83:6 *292:19 4.63305e-05
48 *83:16 *1102:A2 0.00014022
49 *83:16 *1103:B2 3.64953e-05
50 *83:16 *292:19 6.05161e-06
51 *83:20 *1101:A 1.15916e-05
52 *83:20 *1101:B 1.62621e-05
53 *83:20 *86:12 1.41642e-05
54 *83:20 *290:93 4.13122e-06
55 *83:24 *1102:A2 9.66977e-05
56 *83:26 *1103:A2 7.88091e-05
57 *83:26 *1131:S 0.00013909
58 *83:37 *1131:A0 0
59 *83:37 *1133:B 0
60 *83:37 *1135:A2 7.6644e-05
61 *83:37 *153:50 0
62 *83:37 *209:16 0
63 *83:48 *1139:A3 2.16719e-05
64 *83:48 *153:37 3.4323e-06
65 *83:48 *153:50 0
66 *83:48 *209:16 0
67 *83:101 *1029:A 0
68 *83:101 *1033:A 7.74135e-05
69 *83:101 *1034:A 1.79578e-05
70 *83:101 *290:67 2.1527e-05
71 *83:101 *291:47 0
72 *83:101 *291:67 6.49548e-05
73 *83:122 *1148:B 0
74 *83:122 *153:90 0.000126439
75 *1032:A *83:101 3.44784e-05
76 *1128:A *83:122 0
77 *73:18 *1145:B1 0.000359851
78 *74:39 *1031:A 5.08284e-05
79 *74:39 *83:101 3.17148e-05
80 *74:39 *83:122 2.04825e-05
81 *74:41 *1031:A 5.52238e-05
*RES
1 *1030:X *83:6 10.2464 
2 *83:6 *83:16 9.23214 
3 *83:16 *83:20 5.23214 
4 *83:20 *83:24 6.26786 
5 *83:24 *83:26 12.4464 
6 *83:26 *1131:A1 10.2464 
7 *83:26 *83:37 11 
8 *83:37 *1135:B2 14.3357 
9 *83:37 *83:48 4.98214 
10 *83:48 *1142:B2 22.4071 
11 *83:48 *1139:B2 14.7464 
12 *83:24 *1103:A1 9.72857 
13 *83:20 *1095:A 15.4429 
14 *83:16 *1102:B1 9.3 
15 *83:6 *83:101 9.53571 
16 *83:101 *1031:A 16.233 
17 *83:101 *83:122 7.10714 
18 *83:122 *1145:B1 25.425 
19 *83:122 *1152:B1 23.3357 
*END

*D_NET *84 0.000516347
*CONN
*I *1032:C_N I *D sky130_fd_sc_hd__or3b_1
*I *1031:X O *D sky130_fd_sc_hd__or4b_1
*CAP
1 *1032:C_N 0.000129429
2 *1031:X 0.000129429
3 *1032:C_N *1096:B2 9.90431e-05
4 *1032:C_N *291:67 7.83659e-05
5 *1032:B *1032:C_N 8.00806e-05
*RES
1 *1031:X *1032:C_N 30.6179 
*END

*D_NET *85 0.00111587
*CONN
*I *1033:A I *D sky130_fd_sc_hd__clkbuf_1
*I *1032:X O *D sky130_fd_sc_hd__or3b_1
*CAP
1 *1033:A 0.000262141
2 *1032:X 0.000262141
3 *1033:A *1025:A 6.05161e-06
4 *1033:A *1034:A 0.000138205
5 *1033:A *292:6 2.85234e-05
6 *1033:A *292:12 0.000341396
7 *83:101 *1033:A 7.74135e-05
*RES
1 *1032:X *1033:A 34.7607 
*END

*D_NET *86 0.00219673
*CONN
*I *1095:C I *D sky130_fd_sc_hd__or3_1
*I *1035:A I *D sky130_fd_sc_hd__nor3b_1
*I *1102:A2 I *D sky130_fd_sc_hd__a21oi_1
*I *1101:B I *D sky130_fd_sc_hd__or3_1
*I *1034:Y O *D sky130_fd_sc_hd__inv_2
*CAP
1 *1095:C 0
2 *1035:A 0.000292406
3 *1102:A2 0.000112225
4 *1101:B 0.000108729
5 *1034:Y 7.72854e-05
6 *86:12 0.000341973
7 *86:10 0.000413425
8 *86:8 7.72854e-05
9 *1035:A *1104:A1 0.000126094
10 *1035:A *1104:A2 4.73286e-05
11 *1035:A *200:112 0
12 *1101:B *1103:B1 0.00015244
13 *1102:A2 *1103:B2 2.36643e-05
14 *86:8 *1034:A 3.93247e-05
15 *86:12 *200:112 0
16 *1035:B *1035:A 5.65955e-05
17 *1095:A *1035:A 5.37741e-06
18 *1095:A *86:12 5.52302e-05
19 *83:16 *1102:A2 0.00014022
20 *83:20 *1101:B 1.62621e-05
21 *83:20 *86:12 1.41642e-05
22 *83:24 *1102:A2 9.66977e-05
*RES
1 *1034:Y *86:8 10.675 
2 *86:8 *86:10 4.5 
3 *86:10 *86:12 1.94643 
4 *86:12 *1101:B 16.05 
5 *86:12 *1102:A2 16.4071 
6 *86:10 *1035:A 19.0857 
7 *86:8 *1095:C 9.3 
*END

*D_NET *87 0.00483411
*CONN
*I *1087:A1 I *D sky130_fd_sc_hd__o21ai_1
*I *1088:A2 I *D sky130_fd_sc_hd__o311a_1
*I *1085:A1 I *D sky130_fd_sc_hd__a32o_1
*I *1044:A I *D sky130_fd_sc_hd__nor2_1
*I *1036:Y O *D sky130_fd_sc_hd__nand2_1
*CAP
1 *1087:A1 0
2 *1088:A2 0
3 *1085:A1 0.000503025
4 *1044:A 0.000161753
5 *1036:Y 0.000270058
6 *87:29 0.000616454
7 *87:23 0.000468457
8 *87:8 0.000786838
9 *1044:A *1044:B 0.000202137
10 *1044:A *1056:A 3.11088e-05
11 *1044:A *1126:S 7.25873e-06
12 *1085:A1 *1088:A3 0.000124538
13 *1085:A1 *1108:B 0.000197269
14 *1085:A1 *1117:B 2.56601e-05
15 *1085:A1 *93:12 0
16 *1085:A1 *93:68 3.61008e-05
17 *1085:A1 *121:10 0.000200413
18 *1085:A1 *124:14 0
19 *1085:A1 *124:32 0
20 *1085:A1 *273:49 0
21 *87:8 *1039:A 2.6304e-05
22 *87:8 *1043:B1 0.000142317
23 *87:8 *1044:B 0.000307848
24 *87:8 *1105:B 0
25 *87:8 *204:12 0
26 *87:8 *247:16 0
27 *87:29 *1087:A2 0.000274036
28 *87:29 *1087:B1 6.34812e-05
29 *87:29 *1088:A1 4.77002e-05
30 *87:29 *1088:B1 1.87331e-05
31 *87:29 *1088:C1 1.16543e-05
32 *87:29 *124:14 2.67018e-05
33 *1204:D *87:23 0.000256792
34 *1204:D *87:29 2.74737e-05
*RES
1 *1036:Y *87:8 20.3 
2 *87:8 *1044:A 17.1929 
3 *87:8 *87:23 10.7857 
4 *87:23 *87:29 4.46429 
5 *87:29 *1085:A1 28.8 
6 *87:29 *1088:A2 9.3 
7 *87:23 *1087:A1 9.3 
*END

*D_NET *88 0.00334933
*CONN
*I *1038:B I *D sky130_fd_sc_hd__or2_1
*I *1039:B I *D sky130_fd_sc_hd__nand2_1
*I *1117:C I *D sky130_fd_sc_hd__or3_1
*I *1085:A3 I *D sky130_fd_sc_hd__a32o_1
*I *1037:X O *D sky130_fd_sc_hd__or2_1
*CAP
1 *1038:B 0.000285954
2 *1039:B 3.3034e-05
3 *1117:C 1.91209e-05
4 *1085:A3 0.000116913
5 *1037:X 7.72788e-05
6 *88:36 0.000476635
7 *88:14 0.000531101
8 *88:6 0.000629993
9 *1038:B *1043:A1 0.000219001
10 *1038:B *1043:A2 0.000100262
11 *1038:B *89:8 1.02132e-05
12 *1038:B *201:43 2.62194e-05
13 *1039:B *1043:A2 1.17091e-05
14 *1085:A3 *1085:B1 1.28658e-05
15 *1085:A3 *1085:B2 4.8843e-05
16 *1085:A3 *1117:A 9.90431e-05
17 *1085:A3 *1117:B 0.000229456
18 *88:6 *273:18 3.43118e-05
19 *88:6 *273:75 6.05161e-06
20 *88:14 *124:32 3.25247e-05
21 *88:14 *201:10 5.10822e-05
22 *88:14 *273:18 3.69047e-06
23 *88:14 *273:30 1.83053e-05
24 *88:14 *274:37 2.54304e-06
25 *88:14 *274:39 9.70196e-05
26 *88:36 *204:12 0
27 *88:36 *273:12 2.82405e-05
28 *88:36 *273:30 0.000100639
29 *1203:D *1085:A3 4.72818e-05
*RES
1 *1037:X *88:6 10.2464 
2 *88:6 *88:14 14.5714 
3 *88:14 *1085:A3 13.0321 
4 *88:14 *1117:C 10.0321 
5 *88:6 *88:36 11.5536 
6 *88:36 *1039:B 10.0321 
7 *88:36 *1038:B 13.55 
*END

*D_NET *89 0.00158478
*CONN
*I *1105:B I *D sky130_fd_sc_hd__or2_1
*I *1043:A1 I *D sky130_fd_sc_hd__a21o_1
*I *1038:X O *D sky130_fd_sc_hd__or2_1
*CAP
1 *1105:B 0.000211828
2 *1043:A1 7.85136e-05
3 *1038:X 9.09194e-05
4 *89:8 0.000381261
5 *1043:A1 *1043:A2 0
6 *1043:A1 *201:43 0.000186771
7 *1105:B *1038:A 4.42509e-05
8 *1105:B *1043:B1 0
9 *1105:B *1105:A 1.21309e-05
10 *1105:B *275:10 0.000285684
11 *89:8 *201:43 6.42095e-05
12 *1038:B *1043:A1 0.000219001
13 *1038:B *89:8 1.02132e-05
14 *87:8 *1105:B 0
*RES
1 *1038:X *89:8 11.0857 
2 *89:8 *1043:A1 12.4429 
3 *89:8 *1105:B 22.9786 
*END

*D_NET *90 0.000238531
*CONN
*I *1043:A2 I *D sky130_fd_sc_hd__a21o_1
*I *1039:Y O *D sky130_fd_sc_hd__nand2_1
*CAP
1 *1043:A2 3.76486e-05
2 *1039:Y 3.76486e-05
3 *1043:A2 *201:43 5.12625e-05
4 *1038:B *1043:A2 0.000100262
5 *1039:B *1043:A2 1.17091e-05
6 *1043:A1 *1043:A2 0
*RES
1 *1039:Y *1043:A2 19.975 
*END

*D_NET *91 0.00334568
*CONN
*I *1042:C I *D sky130_fd_sc_hd__nand4_4
*I *1062:C I *D sky130_fd_sc_hd__and3_1
*I *1046:A3 I *D sky130_fd_sc_hd__a311oi_4
*I *1040:X O *D sky130_fd_sc_hd__a21o_2
*CAP
1 *1042:C 0.000210733
2 *1062:C 8.50634e-05
3 *1046:A3 7.31505e-05
4 *1040:X 0.000174574
5 *91:23 0.000476678
6 *91:8 0.000428606
7 *1042:C *1042:D 3.93346e-05
8 *1042:C *272:61 8.11878e-05
9 *1046:A3 *1051:A2 0.000168939
10 *1046:A3 *1158:B 0.000148189
11 *1046:A3 *97:29 2.39779e-05
12 *1046:A3 *108:12 1.3142e-05
13 *1062:C *271:46 0.000131656
14 *91:8 *1051:A2 8.15095e-05
15 *91:8 *1158:B 7.05375e-05
16 *91:8 *1175:B1_N 0
17 *91:8 *97:44 3.34687e-05
18 *91:8 *100:8 0.000260993
19 *91:23 *1059:B 9.60939e-05
20 *91:23 *1061:A2 3.97677e-05
21 *91:23 *1158:B 3.69047e-06
22 *91:23 *1159:A2 2.59355e-05
23 *91:23 *271:42 4.40586e-05
24 *91:23 *271:46 0.000225982
25 *91:23 *272:50 0.000226417
26 *91:23 *272:61 0.000181996
*RES
1 *1040:X *91:8 18.175 
2 *91:8 *1046:A3 16.3536 
3 *91:8 *91:23 10.2857 
4 *91:23 *1062:C 10.9964 
5 *91:23 *1042:C 13.1393 
*END

*D_NET *92 0.00462046
*CONN
*I *1081:B I *D sky130_fd_sc_hd__and2_1
*I *1042:D I *D sky130_fd_sc_hd__nand4_4
*I *1061:C1 I *D sky130_fd_sc_hd__a311o_1
*I *1041:Y O *D sky130_fd_sc_hd__nor3b_2
*CAP
1 *1081:B 0.000206681
2 *1042:D 0.000152839
3 *1061:C1 0.00012729
4 *1041:Y 0.000484289
5 *92:23 0.000887203
6 *92:10 0.00113926
7 *1042:D *272:61 1.97695e-05
8 *1061:C1 *1056:B 0.000314493
9 *1061:C1 *1060:A 9.77414e-05
10 *1061:C1 *1061:A3 5.08902e-05
11 *1061:C1 *1061:B1 7.77041e-05
12 *1061:C1 *105:45 0.000259539
13 *1081:B *1048:B_N 6.07328e-05
14 *1081:B *1081:A 5.71472e-05
15 *92:10 *1041:B 0
16 *92:10 *1041:C_N 5.52302e-05
17 *92:10 *1052:C 0.000139777
18 *92:10 *247:10 5.23057e-05
19 *92:10 *276:33 5.58941e-05
20 *92:23 *1046:A1 0
21 *92:23 *1047:B 0.000126474
22 *92:23 *1048:B_N 5.80706e-06
23 *92:23 *1056:B 0
24 *92:23 *97:8 3.85363e-05
25 *92:23 *138:14 0
26 *92:23 *276:33 0.000171519
27 *92:23 *278:63 0
28 *92:23 *278:76 0
29 *1042:C *1042:D 3.93346e-05
*RES
1 *1041:Y *92:10 23.2821 
2 *92:10 *1061:C1 18.8714 
3 *92:10 *92:23 10.1429 
4 *92:23 *1042:D 16.8357 
5 *92:23 *1081:B 17.6571 
*END

*D_NET *93 0.00683535
*CONN
*I *1108:C I *D sky130_fd_sc_hd__or4b_1
*I *1117:B I *D sky130_fd_sc_hd__or3_1
*I *1111:B I *D sky130_fd_sc_hd__or4b_1
*I *1105:A I *D sky130_fd_sc_hd__or2_1
*I *1043:B1 I *D sky130_fd_sc_hd__a21o_1
*I *1088:A3 I *D sky130_fd_sc_hd__o311a_1
*I *1082:A I *D sky130_fd_sc_hd__and2_1
*I *1042:Y O *D sky130_fd_sc_hd__nand4_4
*CAP
1 *1108:C 0
2 *1117:B 0.000357018
3 *1111:B 0
4 *1105:A 0.000284606
5 *1043:B1 0.0001583
6 *1088:A3 7.25037e-05
7 *1082:A 0.000251797
8 *1042:Y 0.00017149
9 *93:68 0.000474251
10 *93:42 0.00137956
11 *93:29 0.00112547
12 *93:12 0.000494853
13 *93:8 0.000243979
14 *93:6 0.00017149
15 *1082:A *1056:C 0.00015136
16 *1082:A *1087:A2 1.41665e-05
17 *1082:A *103:12 3.29297e-05
18 *1082:A *122:10 7.77946e-05
19 *1088:A3 *122:10 0
20 *1105:A *247:16 0.000102296
21 *1105:A *275:10 7.62718e-05
22 *1117:B *1085:B1 4.64386e-05
23 *1117:B *1085:B2 2.26104e-05
24 *1117:B *273:49 3.57844e-05
25 *93:6 *138:14 7.48091e-05
26 *93:6 *273:38 2.44318e-05
27 *93:6 *275:24 5.52238e-05
28 *93:12 *1108:B 2.19684e-05
29 *93:12 *122:10 9.05288e-05
30 *93:68 *1108:B 4.94455e-05
31 *93:68 *1111:C 0.000125731
32 *93:68 *122:10 4.98055e-06
33 *93:68 *273:38 2.82057e-05
34 *93:68 *273:49 4.48583e-05
35 *1085:A1 *1088:A3 0.000124538
36 *1085:A1 *1117:B 2.56601e-05
37 *1085:A1 *93:12 0
38 *1085:A1 *93:68 3.61008e-05
39 *1085:A3 *1117:B 0.000229456
40 *1105:B *1043:B1 0
41 *1105:B *1105:A 1.21309e-05
42 *87:8 *1043:B1 0.000142317
*RES
1 *1042:Y *93:6 12.7107 
2 *93:6 *93:8 4.5 
3 *93:8 *93:12 7.66071 
4 *93:12 *1082:A 22.55 
5 *93:12 *93:29 1.35714 
6 *93:29 *1088:A3 19.9429 
7 *93:29 *93:42 10.3929 
8 *93:42 *1043:B1 21.7643 
9 *93:42 *1105:A 22.2286 
10 *93:8 *93:68 3.46429 
11 *93:68 *1111:B 13.8 
12 *93:68 *1117:B 19.0679 
13 *93:6 *1108:C 9.3 
*END

*D_NET *94 0.00385086
*CONN
*I *1120:B I *D sky130_fd_sc_hd__or3b_1
*I *1123:A I *D sky130_fd_sc_hd__or3b_1
*I *1044:B I *D sky130_fd_sc_hd__nor2_1
*I *1043:X O *D sky130_fd_sc_hd__a21o_1
*CAP
1 *1120:B 0.000250352
2 *1123:A 0
3 *1044:B 0.000498306
4 *1043:X 0
5 *94:27 0.000564209
6 *94:4 0.000812162
7 *1044:B *1126:S 1.10591e-05
8 *1044:B *204:12 0
9 *1044:B *275:14 0.000223469
10 *1120:B *1121:A0 0
11 *1120:B *247:16 0.000530123
12 *94:27 *1121:A0 0
13 *94:27 *1125:A 0
14 *94:27 *201:43 6.42095e-05
15 *94:27 *247:16 0.000247786
16 *94:27 *275:14 0.000139202
17 *1044:A *1044:B 0.000202137
18 *87:8 *1044:B 0.000307848
*RES
1 *1043:X *94:4 9.3 
2 *94:4 *1044:B 28.3536 
3 *94:4 *94:27 10.25 
4 *94:27 *1123:A 13.8 
5 *94:27 *1120:B 20.6036 
*END

*D_NET *95 0.0033355
*CONN
*I *1126:S I *D sky130_fd_sc_hd__mux2_1
*I *1056:A I *D sky130_fd_sc_hd__or4_1
*I *1044:Y O *D sky130_fd_sc_hd__nor2_1
*CAP
1 *1126:S 0.000338717
2 *1056:A 0.00113715
3 *1044:Y 0
4 *95:4 0.00147586
5 *1056:A *1055:B 9.31324e-06
6 *1056:A *1056:C 2.39337e-05
7 *1056:A *1056:D 6.24375e-05
8 *1056:A *103:12 7.74135e-05
9 *1056:A *105:45 0.000119603
10 *1126:S *247:16 4.16438e-05
11 *1044:A *1056:A 3.11088e-05
12 *1044:A *1126:S 7.25873e-06
13 *1044:B *1126:S 1.10591e-05
*RES
1 *1044:Y *95:4 9.3 
2 *95:4 *1056:A 33.3714 
3 *95:4 *1126:S 22.8357 
*END

*D_NET *96 0.00134438
*CONN
*I *1046:B1 I *D sky130_fd_sc_hd__a311oi_4
*I *1058:C I *D sky130_fd_sc_hd__and3b_1
*I *1045:Y O *D sky130_fd_sc_hd__inv_2
*CAP
1 *1046:B1 0.000212568
2 *1058:C 0.000217862
3 *1045:Y 0
4 *96:4 0.00043043
5 *1046:B1 *1046:A1 1.00332e-05
6 *1046:B1 *1058:A_N 3.42301e-05
7 *1046:B1 *1061:A2 0
8 *1046:B1 *278:63 9.13141e-05
9 *1058:C *1058:A_N 4.38088e-05
10 *1058:C *1061:A1 5.33005e-05
11 *1058:C *1061:A2 3.17866e-05
12 *1058:C *276:39 0.000139208
13 *1058:C *277:25 6.56312e-06
14 *1058:C *277:38 7.32756e-05
*RES
1 *1045:Y *96:4 9.3 
2 *96:4 *1058:C 22.3536 
3 *96:4 *1046:B1 22.3714 
*END

*D_NET *97 0.00389766
*CONN
*I *1163:A I *D sky130_fd_sc_hd__or2_1
*I *1175:A1 I *D sky130_fd_sc_hd__o21ba_1
*I *1158:A I *D sky130_fd_sc_hd__or2_2
*I *1047:B I *D sky130_fd_sc_hd__and2_1
*I *1046:Y O *D sky130_fd_sc_hd__a311oi_4
*CAP
1 *1163:A 0
2 *1175:A1 5.81881e-05
3 *1158:A 0
4 *1047:B 0.00021879
5 *1046:Y 4.88551e-05
6 *97:44 0.00024937
7 *97:29 0.000977616
8 *97:8 0.00105408
9 *1047:B *1047:A 1.02132e-05
10 *1047:B *276:33 5.46536e-05
11 *1047:B *276:39 4.28478e-05
12 *1175:A1 *1175:B1_N 9.90367e-05
13 *1175:A1 *108:23 5.80803e-05
14 *97:8 *278:63 2.83284e-06
15 *97:29 *1158:B 0.000175512
16 *97:29 *1159:B1 0
17 *97:29 *108:12 0
18 *97:29 *111:16 0.000192554
19 *97:29 *138:14 0.000291487
20 *97:44 *1158:B 5.7616e-05
21 *97:44 *108:12 5.52238e-05
22 *97:44 *108:23 2.82423e-05
23 *1046:A3 *97:29 2.39779e-05
24 *91:8 *97:44 3.34687e-05
25 *92:23 *1047:B 0.000126474
26 *92:23 *97:8 3.85363e-05
*RES
1 *1046:Y *97:8 14.8357 
2 *97:8 *1047:B 18.7464 
3 *97:8 *97:29 21.3036 
4 *97:29 *1158:A 13.8 
5 *97:29 *97:44 7.92857 
6 *97:44 *1175:A1 11.0857 
7 *97:44 *1163:A 9.3 
*END

*D_NET *98 0.00221287
*CONN
*I *1061:B1 I *D sky130_fd_sc_hd__a311o_1
*I *1056:B I *D sky130_fd_sc_hd__or4_1
*I *1047:X O *D sky130_fd_sc_hd__and2_1
*CAP
1 *1061:B1 7.04278e-05
2 *1056:B 0.000354089
3 *1047:X 8.08274e-05
4 *98:8 0.000505344
5 *1056:B *1052:A 0.00014285
6 *1056:B *105:45 0.000100018
7 *1056:B *276:23 0.000140933
8 *1056:B *276:33 5.33005e-05
9 *1056:B *277:25 3.92866e-05
10 *1061:B1 *1060:A 5.49995e-05
11 *1061:B1 *1061:A3 1.02911e-05
12 *1061:B1 *105:22 0.000226067
13 *98:8 *277:25 4.22387e-05
14 *1061:C1 *1056:B 0.000314493
15 *1061:C1 *1061:B1 7.77041e-05
16 *92:23 *1056:B 0
*RES
1 *1047:X *98:8 15.1393 
2 *98:8 *1056:B 21.55 
3 *98:8 *1061:B1 16.4071 
*END

*D_NET *99 0.00285033
*CONN
*I *1059:A I *D sky130_fd_sc_hd__and2_1
*I *1051:A1 I *D sky130_fd_sc_hd__a21oi_1
*I *1048:X O *D sky130_fd_sc_hd__and4bb_1
*CAP
1 *1059:A 0
2 *1051:A1 0.000574589
3 *1048:X 0.000249776
4 *99:8 0.000824365
5 *1051:A1 *1056:C 1.82549e-05
6 *1051:A1 *1061:A2 0.000196262
7 *1051:A1 *108:12 1.46624e-05
8 *1051:A1 *272:42 0.000407808
9 *1051:A1 *272:50 1.08359e-05
10 *99:8 *1040:A2 5.93614e-05
11 *99:8 *108:12 4.98055e-06
12 *99:8 *271:42 0.000489436
*RES
1 *1048:X *99:8 20.3 
2 *99:8 *1051:A1 22.7286 
3 *99:8 *1059:A 13.8 
*END

*D_NET *100 0.00336272
*CONN
*I *1059:B I *D sky130_fd_sc_hd__and2_1
*I *1051:A2 I *D sky130_fd_sc_hd__a21oi_1
*I *1049:X O *D sky130_fd_sc_hd__and4bb_1
*CAP
1 *1059:B 7.35792e-05
2 *1051:A2 0.000242181
3 *1049:X 0.000278417
4 *100:8 0.000594177
5 *1051:A2 *1056:C 8.27532e-05
6 *1051:A2 *102:6 0.000226507
7 *1051:A2 *108:12 0.000240484
8 *1051:A2 *272:42 0.000343438
9 *1059:B *1158:B 3.57366e-05
10 *1059:B *1159:A2 1.40034e-05
11 *1059:B *271:46 0
12 *100:8 *1040:A2 0
13 *100:8 *1048:C 0
14 *100:8 *1049:D 0.000331998
15 *100:8 *1173:B 4.70553e-05
16 *100:8 *1175:B1_N 0
17 *100:8 *108:12 0.00010326
18 *100:8 *271:42 0.0001416
19 *1046:A3 *1051:A2 0.000168939
20 *91:8 *1051:A2 8.15095e-05
21 *91:8 *100:8 0.000260993
22 *91:23 *1059:B 9.60939e-05
*RES
1 *1049:X *100:8 22.425 
2 *100:8 *1051:A2 21.6214 
3 *100:8 *1059:B 15.4786 
*END

*D_NET *101 0.000786061
*CONN
*I *1051:B1 I *D sky130_fd_sc_hd__a21oi_1
*I *1188:B I *D sky130_fd_sc_hd__nand2_1
*I *1050:X O *D sky130_fd_sc_hd__or3b_1
*CAP
1 *1051:B1 0.000138311
2 *1188:B 6.92023e-05
3 *1050:X 0
4 *101:6 0.000207513
5 *1051:B1 *1159:B1 0.000111203
6 *1051:B1 *111:16 9.34302e-05
7 *1051:B1 *278:36 3.20387e-05
8 *1188:B *1189:C1 3.11088e-05
9 *1188:B *111:16 1.67642e-05
10 *1188:B *276:43 5.50052e-05
11 *1188:B *278:25 4.27842e-06
12 *1188:B *278:36 2.72055e-05
*RES
1 *1050:X *101:6 13.8 
2 *101:6 *1188:B 15.4964 
3 *101:6 *1051:B1 17.5679 
*END

*D_NET *102 0.00475538
*CONN
*I *1056:C I *D sky130_fd_sc_hd__or4_1
*I *1158:B I *D sky130_fd_sc_hd__or2_2
*I *1051:Y O *D sky130_fd_sc_hd__a21oi_1
*CAP
1 *1056:C 0.000923557
2 *1158:B 0.000189214
3 *1051:Y 8.4183e-05
4 *102:6 0.00119695
5 *1056:C *1046:A1 4.98427e-05
6 *1056:C *103:12 0.000159605
7 *1056:C *111:16 0.000473696
8 *1056:C *122:10 4.23086e-05
9 *1056:C *138:14 0.000226041
10 *1056:C *272:42 2.95726e-05
11 *1056:C *278:76 0.000267158
12 *1158:B *1159:A2 2.49948e-05
13 *102:6 *111:16 9.41642e-05
14 *1046:A3 *1158:B 0.000148189
15 *1051:A1 *1056:C 1.82549e-05
16 *1051:A2 *1056:C 8.27532e-05
17 *1051:A2 *102:6 0.000226507
18 *1056:A *1056:C 2.39337e-05
19 *1059:B *1158:B 3.57366e-05
20 *1082:A *1056:C 0.00015136
21 *91:8 *1158:B 7.05375e-05
22 *91:23 *1158:B 3.69047e-06
23 *97:29 *1158:B 0.000175512
24 *97:44 *1158:B 5.7616e-05
*RES
1 *1051:Y *102:6 11.4786 
2 *102:6 *1158:B 22.1214 
3 *102:6 *1056:C 38.8893 
*END

*D_NET *103 0.00211447
*CONN
*I *1055:A I *D sky130_fd_sc_hd__nor2_1
*I *1082:B I *D sky130_fd_sc_hd__and2_1
*I *1088:B1 I *D sky130_fd_sc_hd__o311a_1
*I *1052:X O *D sky130_fd_sc_hd__or3_1
*CAP
1 *1055:A 0.00015919
2 *1082:B 0
3 *1088:B1 0.00010412
4 *1052:X 0.000184799
5 *103:12 0.0002855
6 *103:6 0.000525368
7 *1055:A *1055:B 5.46383e-06
8 *1055:A *1056:D 0.000127806
9 *1055:A *105:60 1.74352e-05
10 *1088:B1 *1087:A2 7.88091e-05
11 *1088:B1 *1088:C1 4.62945e-05
12 *1088:B1 *122:10 3.2033e-05
13 *103:6 *1056:D 0.000184503
14 *103:6 *105:45 4.51234e-05
15 *103:12 *1087:A2 2.93426e-05
16 *1056:A *103:12 7.74135e-05
17 *1056:C *103:12 0.000159605
18 *1082:A *103:12 3.29297e-05
19 *87:29 *1088:B1 1.87331e-05
*RES
1 *1052:X *103:6 11.8893 
2 *103:6 *103:12 13.375 
3 *103:12 *1088:B1 12.3357 
4 *103:12 *1082:B 9.3 
5 *103:6 *1055:A 11.8 
*END

*D_NET *104 0.00241613
*CONN
*I *1159:A3 I *D sky130_fd_sc_hd__a31o_2
*I *1054:A I *D sky130_fd_sc_hd__clkbuf_4
*I *1053:X O *D sky130_fd_sc_hd__mux2_1
*CAP
1 *1159:A3 0.000842544
2 *1054:A 0
3 *1053:X 0.000104267
4 *104:8 0.000946811
5 *1159:A3 *1189:B2 0.000228558
6 *1159:A3 *105:8 1.40415e-05
7 *1159:A3 *174:10 0.000178943
8 *1159:A3 *174:81 0.00010096
*RES
1 *1053:X *104:8 10.675 
2 *104:8 *1054:A 9.3 
3 *104:8 *1159:A3 23.3893 
*END

*D_NET *105 0.0238191
*CONN
*I *1118:A0 I *D sky130_fd_sc_hd__mux2_1
*I *1115:A1 I *D sky130_fd_sc_hd__mux2_1
*I *1112:A0 I *D sky130_fd_sc_hd__mux2_1
*I *1109:A0 I *D sky130_fd_sc_hd__mux2_1
*I *1121:A0 I *D sky130_fd_sc_hd__mux2_1
*I *1124:A0 I *D sky130_fd_sc_hd__mux2_1
*I *1106:A0 I *D sky130_fd_sc_hd__mux2_1
*I *1126:A1 I *D sky130_fd_sc_hd__mux2_1
*I *1055:B I *D sky130_fd_sc_hd__nor2_1
*I *1060:A I *D sky130_fd_sc_hd__inv_2
*I *1054:X O *D sky130_fd_sc_hd__clkbuf_4
*CAP
1 *1118:A0 0.00127604
2 *1115:A1 0.000378836
3 *1112:A0 9.83842e-05
4 *1109:A0 0
5 *1121:A0 0.000666644
6 *1124:A0 0.000116514
7 *1106:A0 0.000137013
8 *1126:A1 0
9 *1055:B 1.28636e-05
10 *1060:A 1.87229e-05
11 *1054:X 4.42654e-05
12 *105:126 0.00242956
13 *105:113 0.00184185
14 *105:84 0.000970745
15 *105:71 0.000826144
16 *105:60 0.00135965
17 *105:45 0.0012884
18 *105:22 0.00219385
19 *105:10 0.00212451
20 *105:8 0.00137986
21 *1106:A0 *1106:A1 5.66971e-05
22 *1106:A0 *1106:S 3.69047e-06
23 *1112:A0 *1296:A 1.40306e-05
24 *1115:A1 *1115:S 0.000245733
25 *1115:A1 *1231:CLK 5.7661e-06
26 *1115:A1 *173:57 0
27 *1118:A0 *1112:S 5.74499e-06
28 *1118:A0 *1119:A 3.0276e-05
29 *1118:A0 *1169:A 4.73286e-05
30 *1118:A0 *1171:A 0.000271152
31 *1118:A0 *1172:A1 7.49053e-05
32 *1118:A0 *1172:B2 4.43256e-05
33 *1118:A0 *1233:CLK 0.000225374
34 *1118:A0 *173:57 0.000667453
35 *1118:A0 *180:16 0.000139208
36 *1118:A0 *265:10 0.000572143
37 *1118:A0 *267:23 5.0696e-05
38 *1118:A0 *267:25 1.95368e-05
39 *1121:A0 *1065:A0 0
40 *1121:A0 *1124:S 0
41 *1121:A0 *1125:A 5.26184e-05
42 *1121:A0 *1214:CLK 0.000221163
43 *1121:A0 *247:16 0
44 *1124:A0 *1125:A 3.69047e-06
45 *105:10 *1053:A0 0
46 *105:10 *199:34 8.02226e-05
47 *105:22 *1061:A3 2.03233e-05
48 *105:22 *1215:CLK 0.000142745
49 *105:22 *1248:A 0.00027206
50 *105:22 *199:61 0.000118882
51 *105:45 *1052:A 0.00014285
52 *105:45 *1056:D 9.839e-05
53 *105:60 *1056:D 3.18676e-05
54 *105:60 *1126:A0 5.65955e-05
55 *105:71 *1126:A0 8.87957e-05
56 *105:71 *1214:CLK 9.96553e-05
57 *105:84 *1214:CLK 0.000414551
58 *105:84 *247:16 0
59 *105:113 *1053:A0 0
60 *105:113 *1053:A1 0
61 *105:113 *199:24 0.000120004
62 *105:113 *199:34 0.000178222
63 *105:113 *203:10 0
64 *105:126 *1112:S 0.000275478
65 *105:126 *1296:A 2.32625e-05
66 *105:126 *173:57 6.62898e-05
67 *1055:A *1055:B 5.46383e-06
68 *1055:A *105:60 1.74352e-05
69 *1056:A *1055:B 9.31324e-06
70 *1056:A *105:45 0.000119603
71 *1056:B *105:45 0.000100018
72 *1061:B1 *1060:A 5.49995e-05
73 *1061:B1 *105:22 0.000226067
74 *1061:C1 *1060:A 9.77414e-05
75 *1061:C1 *105:45 0.000259539
76 *1120:B *1121:A0 0
77 *1159:A3 *105:8 1.40415e-05
78 *1230:D *105:126 4.87669e-06
79 *1231:D *1115:A1 0
80 *1233:D *1118:A0 0.000719294
81 *94:27 *1121:A0 0
82 *103:6 *105:45 4.51234e-05
*RES
1 *1054:X *105:8 14.3357 
2 *105:8 *105:10 7.41071 
3 *105:10 *105:22 33.5357 
4 *105:22 *1060:A 10.2464 
5 *105:22 *105:45 10.7321 
6 *105:45 *1055:B 9.72857 
7 *105:45 *105:60 14.5536 
8 *105:60 *1126:A1 9.3 
9 *105:60 *105:71 10.8929 
10 *105:71 *1106:A0 15.5857 
11 *105:71 *105:84 5.28571 
12 *105:84 *1124:A0 15.5679 
13 *105:84 *1121:A0 26.3714 
14 *105:10 *1109:A0 13.8 
15 *105:8 *105:113 24.0536 
16 *105:113 *1112:A0 10.8714 
17 *105:113 *105:126 10.4107 
18 *105:126 *1115:A1 25.7821 
19 *105:126 *1118:A0 48.6214 
*END

*D_NET *106 0.000616093
*CONN
*I *1056:D I *D sky130_fd_sc_hd__or4_1
*I *1055:Y O *D sky130_fd_sc_hd__nor2_1
*CAP
1 *1056:D 5.55439e-05
2 *1055:Y 5.55439e-05
3 *1055:A *1056:D 0.000127806
4 *1056:A *1056:D 6.24375e-05
5 *103:6 *1056:D 0.000184503
6 *105:45 *1056:D 9.839e-05
7 *105:60 *1056:D 3.18676e-05
*RES
1 *1055:Y *1056:D 21.6 
*END

*D_NET *107 0.000363833
*CONN
*I *1057:A I *D sky130_fd_sc_hd__clkbuf_1
*I *1056:X O *D sky130_fd_sc_hd__or4_1
*CAP
1 *1057:A 0.000181917
2 *1056:X 0.000181917
3 *1057:A *1041:A 0
*RES
1 *1056:X *1057:A 30.6179 
*END

*D_NET *108 0.00387095
*CONN
*I *1061:A1 I *D sky130_fd_sc_hd__a311o_1
*I *1175:A2 I *D sky130_fd_sc_hd__o21ba_1
*I *1159:A1 I *D sky130_fd_sc_hd__a31o_2
*I *1163:B I *D sky130_fd_sc_hd__or2_1
*I *1058:X O *D sky130_fd_sc_hd__and3b_1
*CAP
1 *1061:A1 0.000175438
2 *1175:A2 0
3 *1159:A1 0.000253921
4 *1163:B 0
5 *1058:X 0
6 *108:23 0.00043961
7 *108:12 0.000729026
8 *108:4 0.000718775
9 *1061:A1 *1061:A2 9.96487e-05
10 *1061:A1 *277:38 2.83425e-05
11 *1159:A1 *1159:A2 0.000229456
12 *1159:A1 *1175:B1_N 0
13 *1159:A1 *174:81 0
14 *108:12 *1061:A2 0.000207698
15 *108:12 *271:42 6.74911e-05
16 *108:12 *272:50 0.000172368
17 *108:23 *1165:A2 0.000150539
18 *108:23 *1175:B1_N 2.72587e-05
19 *1046:A3 *108:12 1.3142e-05
20 *1051:A1 *108:12 1.46624e-05
21 *1051:A2 *108:12 0.000240484
22 *1058:C *1061:A1 5.33005e-05
23 *1175:A1 *108:23 5.80803e-05
24 *97:29 *108:12 0
25 *97:44 *108:12 5.52238e-05
26 *97:44 *108:23 2.82423e-05
27 *99:8 *108:12 4.98055e-06
28 *100:8 *108:12 0.00010326
*RES
1 *1058:X *108:4 9.3 
2 *108:4 *108:12 21.3214 
3 *108:12 *1163:B 9.3 
4 *108:12 *108:23 4.76786 
5 *108:23 *1159:A1 22.1214 
6 *108:23 *1175:A2 9.3 
7 *108:4 *1061:A1 20.9964 
*END

*D_NET *109 0.00332532
*CONN
*I *1061:A2 I *D sky130_fd_sc_hd__a311o_1
*I *1159:A2 I *D sky130_fd_sc_hd__a31o_2
*I *1059:X O *D sky130_fd_sc_hd__and2_1
*CAP
1 *1061:A2 0.000492742
2 *1159:A2 0.000429629
3 *1059:X 0
4 *109:4 0.000922371
5 *1061:A2 *272:50 0.000201482
6 *1159:A2 *1159:B1 0.000230475
7 *1159:A2 *173:10 8.00346e-05
8 *1159:A2 *174:81 9.90367e-05
9 *1046:B1 *1061:A2 0
10 *1051:A1 *1061:A2 0.000196262
11 *1058:C *1061:A2 3.17866e-05
12 *1059:B *1159:A2 1.40034e-05
13 *1061:A1 *1061:A2 9.96487e-05
14 *1158:B *1159:A2 2.49948e-05
15 *1159:A1 *1159:A2 0.000229456
16 *91:23 *1061:A2 3.97677e-05
17 *91:23 *1159:A2 2.59355e-05
18 *108:12 *1061:A2 0.000207698
*RES
1 *1059:X *109:4 9.3 
2 *109:4 *1159:A2 18.3 
3 *109:4 *1061:A2 28.2821 
*END

*D_NET *110 0.000679226
*CONN
*I *1061:A3 I *D sky130_fd_sc_hd__a311o_1
*I *1060:Y O *D sky130_fd_sc_hd__inv_2
*CAP
1 *1061:A3 0.000298861
2 *1060:Y 0.000298861
3 *1061:B1 *1061:A3 1.02911e-05
4 *1061:C1 *1061:A3 5.08902e-05
5 *105:22 *1061:A3 2.03233e-05
*RES
1 *1060:Y *1061:A3 22.6357 
*END

*D_NET *111 0.00477731
*CONN
*I *1081:A I *D sky130_fd_sc_hd__and2_1
*I *1188:A I *D sky130_fd_sc_hd__nand2_1
*I *1063:D I *D sky130_fd_sc_hd__and4b_1
*I *1062:X O *D sky130_fd_sc_hd__and3_1
*CAP
1 *1081:A 0.00045423
2 *1188:A 0
3 *1063:D 0.000583456
4 *1062:X 0
5 *111:16 0.00133245
6 *111:6 0.00120323
7 *1063:D *1063:C 4.21463e-05
8 *1063:D *1064:A 6.44449e-05
9 *1063:D *278:25 0
10 *1081:A *1046:A1 7.6997e-05
11 *111:16 *1046:A1 7.70035e-05
12 *111:16 *1159:B1 0
13 *1051:B1 *111:16 9.34302e-05
14 *1056:C *111:16 0.000473696
15 *1081:B *1081:A 5.71472e-05
16 *1188:B *111:16 1.67642e-05
17 *1212:D *1063:D 0
18 *69:10 *1063:D 1.56e-05
19 *97:29 *111:16 0.000192554
20 *102:6 *111:16 9.41642e-05
*RES
1 *1062:X *111:6 13.8 
2 *111:6 *111:16 21.3929 
3 *111:16 *1063:D 23.2062 
4 *111:16 *1188:A 13.8 
5 *111:6 *1081:A 21.1929 
*END

*D_NET *112 0.00040468
*CONN
*I *1064:A I *D sky130_fd_sc_hd__clkbuf_1
*I *1063:X O *D sky130_fd_sc_hd__and4b_1
*CAP
1 *1064:A 0.000142503
2 *1063:X 0.000142503
3 *1063:D *1064:A 6.44449e-05
4 *69:10 *1064:A 5.52302e-05
*RES
1 *1063:X *1064:A 21.1179 
*END

*D_NET *113 0.00075688
*CONN
*I *1066:A I *D sky130_fd_sc_hd__clkbuf_1
*I *1065:X O *D sky130_fd_sc_hd__mux2_1
*CAP
1 *1066:A 0.000242617
2 *1065:X 0.000242617
3 *1066:A *1264:A 0.000153047
4 *80:68 *1066:A 0.000118599
*RES
1 *1065:X *1066:A 31.725 
*END

*D_NET *114 0.000456791
*CONN
*I *1068:A I *D sky130_fd_sc_hd__clkbuf_1
*I *1067:X O *D sky130_fd_sc_hd__mux2_1
*CAP
1 *1068:A 0.000198013
2 *1067:X 0.000198013
3 *1068:A *1065:A1 0
4 *1068:A *1098:A0 5.80706e-06
5 *1067:S *1068:A 5.4959e-05
*RES
1 *1067:X *1068:A 30.4929 
*END

*D_NET *115 0.000564579
*CONN
*I *1070:A I *D sky130_fd_sc_hd__clkbuf_1
*I *1069:X O *D sky130_fd_sc_hd__mux2_1
*CAP
1 *1070:A 0.000203347
2 *1069:X 0.000203347
3 *1070:A *1275:A 7.25873e-06
4 *1070:A *204:12 0.000150625
*RES
1 *1069:X *1070:A 30.9036 
*END

*D_NET *116 0.000638446
*CONN
*I *1072:A I *D sky130_fd_sc_hd__clkbuf_1
*I *1071:X O *D sky130_fd_sc_hd__mux2_1
*CAP
1 *1072:A 0.000224932
2 *1071:X 0.000224932
3 *1072:A *1099:A1 6.72034e-05
4 *1072:A *1251:A 0.000121379
*RES
1 *1071:X *1072:A 32.2071 
*END

*D_NET *117 0.000140536
*CONN
*I *1074:A I *D sky130_fd_sc_hd__clkbuf_1
*I *1073:X O *D sky130_fd_sc_hd__mux2_1
*CAP
1 *1074:A 6.85607e-05
2 *1073:X 6.85607e-05
3 *1074:A *1073:A0 3.41517e-06
*RES
1 *1073:X *1074:A 19.8679 
*END

*D_NET *118 0.000939793
*CONN
*I *1076:A I *D sky130_fd_sc_hd__clkbuf_1
*I *1075:X O *D sky130_fd_sc_hd__mux2_1
*CAP
1 *1076:A 0.000273358
2 *1075:X 0.000273358
3 *1076:A *202:105 0
4 *1076:A *202:116 0
5 *1076:A *263:12 0.000340415
6 *80:42 *1076:A 5.26625e-05
*RES
1 *1075:X *1076:A 33.3321 
*END

*D_NET *119 0.000458079
*CONN
*I *1078:A I *D sky130_fd_sc_hd__clkbuf_1
*I *1077:X O *D sky130_fd_sc_hd__mux2_1
*CAP
1 *1078:A 0.000229039
2 *1077:X 0.000229039
3 *1078:A *1077:A0 0
4 *1078:A *1263:A 0
*RES
1 *1077:X *1078:A 30.9036 
*END

*D_NET *120 0.000837837
*CONN
*I *1080:A I *D sky130_fd_sc_hd__clkbuf_1
*I *1079:X O *D sky130_fd_sc_hd__mux2_1
*CAP
1 *1080:A 0.00041101
2 *1079:X 0.00041101
3 *1080:A *1242:A 0
4 *1080:A *210:31 0
5 *80:48 *1080:A 1.58163e-05
*RES
1 *1079:X *1080:A 32.6536 
*END

*D_NET *121 0.00243768
*CONN
*I *1114:D I *D sky130_fd_sc_hd__and4_1
*I *1083:A0 I *D sky130_fd_sc_hd__mux2_1
*I *1085:A2 I *D sky130_fd_sc_hd__a32o_1
*I *1081:X O *D sky130_fd_sc_hd__and2_1
*CAP
1 *1114:D 5.34335e-05
2 *1083:A0 7.87291e-05
3 *1085:A2 0
4 *1081:X 0.000503289
5 *121:21 0.000388469
6 *121:10 0.000759596
7 *1083:A0 *1114:A 0.000182806
8 *1114:D *1114:A 0.000129504
9 *121:10 *1114:B 0
10 *121:10 *124:32 0
11 *121:10 *274:39 2.89016e-05
12 *121:21 *1114:B 0
13 *121:21 *1118:S 0
14 *121:21 *198:12 0.000112539
15 *121:21 *273:49 0
16 *1085:A1 *121:10 0.000200413
*RES
1 *1081:X *121:10 22.2286 
2 *121:10 *1085:A2 13.8 
3 *121:10 *121:21 9.48214 
4 *121:21 *1083:A0 11.0679 
5 *121:21 *1114:D 10.6571 
*END

*D_NET *122 0.00445853
*CONN
*I *1087:A2 I *D sky130_fd_sc_hd__o21ai_1
*I *1083:A1 I *D sky130_fd_sc_hd__mux2_1
*I *1085:B1 I *D sky130_fd_sc_hd__a32o_1
*I *1082:X O *D sky130_fd_sc_hd__and2_1
*CAP
1 *1087:A2 0.000424307
2 *1083:A1 0.000158347
3 *1085:B1 0.000134678
4 *1082:X 0
5 *122:10 0.000705505
6 *122:4 0.000836787
7 *1083:A1 *1114:A 5.50052e-05
8 *1083:A1 *140:12 0.000382004
9 *1083:A1 *273:49 0.000367753
10 *1085:B1 *1085:B2 4.56162e-05
11 *1087:A2 *1088:C1 7.34285e-06
12 *122:10 *1111:C 2.82057e-05
13 *122:10 *138:14 3.84385e-05
14 *122:10 *140:12 0.000227021
15 *122:10 *273:38 0.000129868
16 *122:10 *273:49 0.000214349
17 *1056:C *122:10 4.23086e-05
18 *1082:A *1087:A2 1.41665e-05
19 *1082:A *122:10 7.77946e-05
20 *1085:A3 *1085:B1 1.28658e-05
21 *1088:A3 *122:10 0
22 *1088:B1 *1087:A2 7.88091e-05
23 *1088:B1 *122:10 3.2033e-05
24 *1117:B *1085:B1 4.64386e-05
25 *87:29 *1087:A2 0.000274036
26 *93:12 *122:10 9.05288e-05
27 *93:68 *122:10 4.98055e-06
28 *103:12 *1087:A2 2.93426e-05
*RES
1 *1082:X *122:4 9.3 
2 *122:4 *122:10 14.6786 
3 *122:10 *1085:B1 16.7196 
4 *122:10 *1083:A1 19.7286 
5 *122:4 *1087:A2 24.7107 
*END

*D_NET *123 0.000419508
*CONN
*I *1084:A I *D sky130_fd_sc_hd__clkbuf_1
*I *1083:X O *D sky130_fd_sc_hd__mux2_1
*CAP
1 *1084:A 0.000108167
2 *1083:X 0.000108167
3 *1084:A *142:10 0.000126272
4 *1084:A *198:12 6.44649e-05
5 *1202:D *1084:A 1.24368e-05
*RES
1 *1083:X *1084:A 30.1893 
*END

*D_NET *124 0.00309822
*CONN
*I *1114:B I *D sky130_fd_sc_hd__and4_1
*I *1117:A I *D sky130_fd_sc_hd__or3_1
*I *1087:B1 I *D sky130_fd_sc_hd__o21ai_1
*I *1088:A1 I *D sky130_fd_sc_hd__o311a_1
*I *1086:Y O *D sky130_fd_sc_hd__inv_2
*CAP
1 *1114:B 0.0001354
2 *1117:A 1.74874e-05
3 *1087:B1 2.06948e-05
4 *1088:A1 1.5785e-05
5 *1086:Y 9.27009e-05
6 *124:32 0.000383831
7 *124:14 0.000381581
8 *124:8 0.000668746
9 *1088:A1 *1088:C1 4.77002e-05
10 *1114:B *1118:S 0.000342492
11 *1117:A *1085:B2 2.44318e-05
12 *124:8 *273:30 0.00014285
13 *124:14 *201:10 0
14 *124:14 *201:12 0
15 *124:32 *201:10 0
16 *1085:A1 *124:14 0
17 *1085:A1 *124:32 0
18 *1085:A3 *1117:A 9.90431e-05
19 *1203:D *1114:B 0.000388143
20 *1203:D *1117:A 5.52302e-05
21 *1204:D *1088:A1 1.32293e-05
22 *1204:D *124:14 9.84673e-05
23 *87:29 *1087:B1 6.34812e-05
24 *87:29 *1088:A1 4.77002e-05
25 *87:29 *124:14 2.67018e-05
26 *88:14 *124:32 3.25247e-05
27 *121:10 *1114:B 0
28 *121:10 *124:32 0
29 *121:21 *1114:B 0
*RES
1 *1086:Y *124:8 15.1571 
2 *124:8 *124:14 11.0357 
3 *124:14 *1088:A1 10.2464 
4 *124:14 *1087:B1 10.2152 
5 *124:8 *124:32 4.07143 
6 *124:32 *1117:A 14.7464 
7 *124:32 *1114:B 19.0857 
*END

*D_NET *125 0.000730164
*CONN
*I *1088:C1 I *D sky130_fd_sc_hd__o311a_1
*I *1087:Y O *D sky130_fd_sc_hd__o21ai_1
*CAP
1 *1088:C1 0.000280238
2 *1087:Y 0.000280238
3 *1087:A2 *1088:C1 7.34285e-06
4 *1088:A1 *1088:C1 4.77002e-05
5 *1088:B1 *1088:C1 4.62945e-05
6 *1204:D *1088:C1 5.66971e-05
7 *87:29 *1088:C1 1.16543e-05
*RES
1 *1087:Y *1088:C1 22.7429 
*END

*D_NET *126 0.00487682
*CONN
*I *1091:B1_N I *D sky130_fd_sc_hd__o21ba_1
*I *1094:A2 I *D sky130_fd_sc_hd__a21oi_1
*I *1092:A2 I *D sky130_fd_sc_hd__a21oi_1
*I *1093:A2 I *D sky130_fd_sc_hd__o21a_1
*I *1090:X O *D sky130_fd_sc_hd__o21a_1
*CAP
1 *1091:B1_N 4.52891e-05
2 *1094:A2 0
3 *1092:A2 0.000372653
4 *1093:A2 0.000151744
5 *1090:X 0.000307848
6 *126:14 0.000828044
7 *126:12 0.000978929
8 *126:6 0.00102842
9 *1092:A2 *1026:B 0.000100516
10 *1092:A2 *1092:A1 2.84424e-05
11 *1092:A2 *1093:B1 0.000124861
12 *1092:A2 *1100:S 3.59362e-05
13 *1092:A2 *1262:A 1.84776e-05
14 *1093:A2 *1093:A1 6.05161e-06
15 *1093:A2 *1093:B1 1.47872e-05
16 *1093:A2 *133:14 2.20111e-05
17 *126:6 *1090:B1 1.92905e-05
18 *126:6 *1091:A1 3.39935e-05
19 *126:12 *1098:A3 4.94362e-05
20 *126:12 *202:43 0
21 *126:14 *1098:A3 0.00010484
22 *126:14 *133:14 7.5802e-05
23 *126:14 *202:43 0
24 *1090:A2 *1091:B1_N 3.37729e-05
25 *1090:A2 *126:6 0.000185221
26 *1206:D *126:12 2.27416e-05
27 *77:40 *1091:B1_N 5.71472e-05
28 *77:40 *126:6 1.74903e-05
29 *77:40 *126:12 0.000213071
*RES
1 *1090:X *126:6 13.5321 
2 *126:6 *126:12 14.375 
3 *126:12 *126:14 6.5 
4 *126:14 *1093:A2 16.5143 
5 *126:14 *1092:A2 19.9607 
6 *126:12 *1094:A2 13.8 
7 *126:6 *1091:B1_N 10.8714 
*END

*D_NET *127 0.00103681
*CONN
*I *1093:B1 I *D sky130_fd_sc_hd__o21a_1
*I *1092:Y O *D sky130_fd_sc_hd__a21oi_1
*CAP
1 *1093:B1 0.000203873
2 *1092:Y 0.000203873
3 *1093:B1 *1026:B 1.32293e-05
4 *1093:B1 *1093:A1 9.84729e-05
5 *1093:B1 *1262:A 5.49995e-05
6 *1093:B1 *133:14 0.000322716
7 *1092:A2 *1093:B1 0.000124861
8 *1093:A2 *1093:B1 1.47872e-05
*RES
1 *1092:Y *1093:B1 24.9214 
*END

*D_NET *128 0.000755763
*CONN
*I *1246:A I *D sky130_fd_sc_hd__dlygate4sd3_1
*I *1094:Y O *D sky130_fd_sc_hd__a21oi_1
*CAP
1 *1246:A 7.41045e-05
2 *1094:Y 7.41045e-05
3 *1246:A *1094:A1 0.000146591
4 *1246:A *1097:A 9.90431e-05
5 *1090:A1 *1246:A 0.00036192
*RES
1 *1094:Y *1246:A 22.4393 
*END

*D_NET *129 0.00385757
*CONN
*I *1096:B2 I *D sky130_fd_sc_hd__o22a_1
*I *1095:X O *D sky130_fd_sc_hd__or3_1
*CAP
1 *1096:B2 0.00114021
2 *1095:X 0.00114021
3 *1096:B2 *1034:A 0.000576948
4 *1096:B2 *291:67 5.9563e-05
5 *1028:B1 *1096:B2 4.10026e-05
6 *1028:B2 *1096:B2 0.000497121
7 *1032:C_N *1096:B2 9.90431e-05
8 *1090:A1 *1096:B2 9.79376e-05
9 *1096:B1 *1096:B2 2.53134e-05
10 *75:12 *1096:B2 0.000180212
*RES
1 *1095:X *1096:B2 41.6357 
*END

*D_NET *130 0.000226158
*CONN
*I *1097:B I *D sky130_fd_sc_hd__nor2_1
*I *1096:X O *D sky130_fd_sc_hd__o22a_1
*CAP
1 *1097:B 1.30936e-05
2 *1096:X 1.30936e-05
3 *1090:A1 *1097:B 9.99853e-05
4 *78:10 *1097:B 9.99853e-05
*RES
1 *1096:X *1097:B 19.5464 
*END

*D_NET *131 0.00121656
*CONN
*I *1100:A0 I *D sky130_fd_sc_hd__mux2_1
*I *1098:X O *D sky130_fd_sc_hd__mux4_1
*CAP
1 *1100:A0 0.000332244
2 *1098:X 0.000332244
3 *1100:A0 *1099:S1 2.29112e-05
4 *1100:A0 *1100:S 0.000442585
5 *1100:A0 *288:25 9.15842e-06
6 *1100:A0 *288:49 7.74135e-05
*RES
1 *1098:X *1100:A0 32.8679 
*END

*D_NET *132 0.00121581
*CONN
*I *1100:A1 I *D sky130_fd_sc_hd__mux2_1
*I *1099:X O *D sky130_fd_sc_hd__mux4_1
*CAP
1 *1100:A1 0.000517098
2 *1099:X 0.000517098
3 *1100:A1 *1099:A0 4.89895e-05
4 *1100:A1 *1099:A2 1.14548e-05
5 *1100:A1 *1099:A3 6.34233e-06
6 *1100:A1 *1099:S0 6.24499e-05
7 *1100:A1 *1099:S1 5.23822e-05
*RES
1 *1099:X *1100:A1 34.9571 
*END

*D_NET *133 0.00589131
*CONN
*I *1101:C I *D sky130_fd_sc_hd__or3_1
*I *1100:X O *D sky130_fd_sc_hd__mux2_1
*CAP
1 *1101:C 0.00169316
2 *1100:X 0.000661446
3 *133:14 0.0023546
4 *1101:C *1101:A 0.000196978
5 *1101:C *1270:A 0.000185403
6 *133:14 *1026:B 0.000379198
7 *1093:A2 *133:14 2.20111e-05
8 *1093:B1 *133:14 0.000322716
9 *126:14 *133:14 7.5802e-05
*RES
1 *1100:X *133:14 28.9964 
2 *133:14 *1101:C 37.3714 
*END

*D_NET *134 0.000602232
*CONN
*I *1103:B1 I *D sky130_fd_sc_hd__a22o_1
*I *1101:X O *D sky130_fd_sc_hd__or3_1
*CAP
1 *1103:B1 0.000207359
2 *1101:X 0.000207359
3 *1103:B1 *1101:A 3.50746e-05
4 *1101:B *1103:B1 0.00015244
*RES
1 *1101:X *1103:B1 31.5286 
*END

*D_NET *135 0.000178868
*CONN
*I *1103:B2 I *D sky130_fd_sc_hd__a22o_1
*I *1102:Y O *D sky130_fd_sc_hd__a21oi_1
*CAP
1 *1103:B2 5.93543e-05
2 *1102:Y 5.93543e-05
3 *1102:A2 *1103:B2 2.36643e-05
4 *83:16 *1103:B2 3.64953e-05
*RES
1 *1102:Y *1103:B2 19.9929 
*END

*D_NET *136 0.000609742
*CONN
*I *1106:S I *D sky130_fd_sc_hd__mux2_1
*I *1105:X O *D sky130_fd_sc_hd__or2_1
*CAP
1 *1106:S 0.000263558
2 *1105:X 0.000263558
3 *1106:S *247:16 7.89362e-05
4 *1106:A0 *1106:S 3.69047e-06
*RES
1 *1105:X *1106:S 32.3679 
*END

*D_NET *137 0.000306569
*CONN
*I *1107:A I *D sky130_fd_sc_hd__clkbuf_1
*I *1106:X O *D sky130_fd_sc_hd__mux2_1
*CAP
1 *1107:A 8.14681e-05
2 *1106:X 8.14681e-05
3 *1107:A *1106:A1 0.000143633
*RES
1 *1106:X *1107:A 20.6893 
*END

*D_NET *138 0.00574452
*CONN
*I *1109:S I *D sky130_fd_sc_hd__mux2_1
*I *1108:X O *D sky130_fd_sc_hd__or4b_1
*CAP
1 *1109:S 0.000712156
2 *1108:X 0.00131751
3 *138:14 0.00202967
4 *1109:S *1109:A1 2.68557e-05
5 *1109:S *1189:A1 0.000184503
6 *1109:S *1189:B1 7.89362e-05
7 *1109:S *1189:B2 0.000127939
8 *138:14 *1187:A 0.000100165
9 *138:14 *272:6 2.97578e-05
10 *138:14 *278:42 0.00045508
11 *138:14 *278:76 5.11714e-05
12 *1056:C *138:14 0.000226041
13 *92:23 *138:14 0
14 *93:6 *138:14 7.48091e-05
15 *97:29 *138:14 0.000291487
16 *122:10 *138:14 3.84385e-05
*RES
1 *1108:X *138:14 45.5143 
2 *138:14 *1109:S 30.7821 
*END

*D_NET *139 0.000134789
*CONN
*I *1110:A I *D sky130_fd_sc_hd__clkbuf_1
*I *1109:X O *D sky130_fd_sc_hd__mux2_1
*CAP
1 *1110:A 6.73946e-05
2 *1109:X 6.73946e-05
*RES
1 *1109:X *1110:A 19.8679 
*END

*D_NET *140 0.0091446
*CONN
*I *1112:S I *D sky130_fd_sc_hd__mux2_1
*I *1111:X O *D sky130_fd_sc_hd__or4b_1
*CAP
1 *1112:S 0.00230684
2 *1111:X 0.00084755
3 *140:12 0.00315439
4 *1112:S *1172:A1 0.00035571
5 *1112:S *1172:B2 4.58194e-05
6 *1112:S *1218:CLK 9.60875e-05
7 *1112:S *1230:CLK 0.000274667
8 *1112:S *1296:A 7.32955e-05
9 *1112:S *173:57 0.000760642
10 *1112:S *180:16 2.55889e-05
11 *140:12 *1111:C 2.34059e-05
12 *140:12 *1119:A 0.000197977
13 *140:12 *1269:A 0
14 *140:12 *198:12 0
15 *1083:A1 *140:12 0.000382004
16 *1118:A0 *1112:S 5.74499e-06
17 *1218:D *140:12 5.41794e-05
18 *1230:D *1112:S 7.99677e-06
19 *1233:D *1112:S 3.02124e-05
20 *1233:D *140:12 0
21 *105:126 *1112:S 0.000275478
22 *122:10 *140:12 0.000227021
*RES
1 *1111:X *140:12 37.0679 
2 *140:12 *1112:S 43.0321 
*END

*D_NET *141 0.0005313
*CONN
*I *1113:A I *D sky130_fd_sc_hd__clkbuf_1
*I *1112:X O *D sky130_fd_sc_hd__mux2_1
*CAP
1 *1113:A 0.000187934
2 *1112:X 0.000187934
3 *1113:A *1053:A1 6.2993e-05
4 *1113:A *1230:CLK 0
5 *1216:D *1113:A 9.24395e-05
*RES
1 *1112:X *1113:A 31.975 
*END

*D_NET *142 0.00629044
*CONN
*I *1115:S I *D sky130_fd_sc_hd__mux2_1
*I *1114:X O *D sky130_fd_sc_hd__and4_1
*CAP
1 *1115:S 0.00177051
2 *1114:X 0.000568094
3 *142:10 0.00233861
4 *1115:S *1115:A0 0.000538814
5 *1115:S *1231:CLK 9.851e-05
6 *142:10 *1118:S 0.00017473
7 *142:10 *1242:A 6.35798e-05
8 *142:10 *1275:A 0
9 *142:10 *198:12 0.000292014
10 *142:10 *201:101 0
11 *142:10 *210:31 0
12 *1084:A *142:10 0.000126272
13 *1115:A1 *1115:S 0.000245733
14 *1231:D *1115:S 1.64343e-05
15 *1232:D *1115:S 5.71472e-05
*RES
1 *1114:X *142:10 32.6929 
2 *142:10 *1115:S 40.2643 
*END

*D_NET *143 0.00051317
*CONN
*I *1116:A I *D sky130_fd_sc_hd__clkbuf_1
*I *1115:X O *D sky130_fd_sc_hd__mux2_1
*CAP
1 *1116:A 0.000256585
2 *1115:X 0.000256585
*RES
1 *1115:X *1116:A 31.0107 
*END

*D_NET *144 0.00177741
*CONN
*I *1118:S I *D sky130_fd_sc_hd__mux2_1
*I *1117:X O *D sky130_fd_sc_hd__or3_1
*CAP
1 *1118:S 0.000424973
2 *1117:X 0.000424973
3 *1118:S *201:88 0.000386472
4 *1118:S *201:101 2.37713e-05
5 *1114:B *1118:S 0.000342492
6 *121:21 *1118:S 0
7 *142:10 *1118:S 0.00017473
*RES
1 *1117:X *1118:S 39.2607 
*END

*D_NET *145 0.00129123
*CONN
*I *1119:A I *D sky130_fd_sc_hd__clkbuf_1
*I *1118:X O *D sky130_fd_sc_hd__mux2_1
*CAP
1 *1119:A 0.000480188
2 *1118:X 0.000480188
3 *1119:A *1233:CLK 1.84776e-05
4 *1119:A *198:12 0
5 *1118:A0 *1119:A 3.0276e-05
6 *1218:D *1119:A 6.14094e-05
7 *1233:D *1119:A 2.27187e-05
8 *140:12 *1119:A 0.000197977
*RES
1 *1118:X *1119:A 36.0286 
*END

*D_NET *146 0.000153505
*CONN
*I *1121:S I *D sky130_fd_sc_hd__mux2_1
*I *1120:X O *D sky130_fd_sc_hd__or3b_1
*CAP
1 *1121:S 7.67524e-05
2 *1120:X 7.67524e-05
*RES
1 *1120:X *1121:S 19.975 
*END

*D_NET *147 0.000243513
*CONN
*I *1122:A I *D sky130_fd_sc_hd__clkbuf_1
*I *1121:X O *D sky130_fd_sc_hd__mux2_1
*CAP
1 *1122:A 0.000121756
2 *1121:X 0.000121756
*RES
1 *1121:X *1122:A 20.6893 
*END

*D_NET *148 0.00136526
*CONN
*I *1124:S I *D sky130_fd_sc_hd__mux2_1
*I *1123:X O *D sky130_fd_sc_hd__or3b_1
*CAP
1 *1124:S 0.000648828
2 *1123:X 0.000648828
3 *1124:S *1124:A1 6.76043e-05
4 *1124:S *1214:CLK 0
5 *1121:A0 *1124:S 0
*RES
1 *1123:X *1124:S 36.5643 
*END

*D_NET *149 0.000488128
*CONN
*I *1125:A I *D sky130_fd_sc_hd__clkbuf_1
*I *1124:X O *D sky130_fd_sc_hd__mux2_1
*CAP
1 *1125:A 0.000215909
2 *1124:X 0.000215909
3 *1125:A *247:16 0
4 *1121:A0 *1125:A 5.26184e-05
5 *1124:A0 *1125:A 3.69047e-06
6 *94:27 *1125:A 0
*RES
1 *1124:X *1125:A 30.9036 
*END

*D_NET *150 0.000310287
*CONN
*I *1127:A I *D sky130_fd_sc_hd__clkbuf_1
*I *1126:X O *D sky130_fd_sc_hd__mux2_1
*CAP
1 *1127:A 0.000155143
2 *1126:X 0.000155143
3 *1127:A *204:12 0
4 *1127:A *247:16 0
*RES
1 *1126:X *1127:A 30.2071 
*END

*D_NET *151 0.00310303
*CONN
*I *1155:B I *D sky130_fd_sc_hd__and2b_1
*I *1148:B I *D sky130_fd_sc_hd__and3_1
*I *1129:B I *D sky130_fd_sc_hd__and2_1
*I *1128:X O *D sky130_fd_sc_hd__or2_1
*CAP
1 *1155:B 0.000410311
2 *1148:B 0.000395057
3 *1129:B 5.85226e-05
4 *1128:X 0
5 *151:8 0.000728667
6 *151:4 0.000685398
7 *1129:B *1130:A 5.71472e-05
8 *1129:B *153:10 0.000142152
9 *1148:B *162:30 8.35526e-05
10 *1155:B *1020:A 0
11 *1155:B *210:31 0
12 *1155:B *286:21 0
13 *151:8 *1130:A 4.38128e-05
14 *151:8 *153:10 9.90431e-05
15 *151:8 *153:90 0.000216121
16 *1128:A *1155:B 2.89016e-05
17 *1128:B *1155:B 0.00010096
18 *1148:A *1148:B 0
19 *1152:B1 *1148:B 0
20 *74:14 *1155:B 5.33882e-05
21 *83:122 *1148:B 0
*RES
1 *1128:X *151:4 9.3 
2 *151:4 *151:8 5.89286 
3 *151:8 *1129:B 11.0857 
4 *151:8 *1148:B 24.2464 
5 *151:4 *1155:B 24.6571 
*END

*D_NET *152 0.000165058
*CONN
*I *1130:A I *D sky130_fd_sc_hd__clkbuf_2
*I *1129:X O *D sky130_fd_sc_hd__and2_1
*CAP
1 *1130:A 3.20492e-05
2 *1129:X 3.20492e-05
3 *1129:B *1130:A 5.71472e-05
4 *151:8 *1130:A 4.38128e-05
*RES
1 *1129:X *1130:A 19.5464 
*END

*D_NET *153 0.00987604
*CONN
*I *1152:A1 I *D sky130_fd_sc_hd__a21o_1
*I *1153:B I *D sky130_fd_sc_hd__and4_1
*I *1146:B I *D sky130_fd_sc_hd__and4_1
*I *1142:A1 I *D sky130_fd_sc_hd__a32o_1
*I *1135:A1 I *D sky130_fd_sc_hd__a32o_1
*I *1131:A0 I *D sky130_fd_sc_hd__mux2_1
*I *1139:A1 I *D sky130_fd_sc_hd__a32o_1
*I *1145:A1 I *D sky130_fd_sc_hd__a21o_1
*I *1130:X O *D sky130_fd_sc_hd__clkbuf_2
*CAP
1 *1152:A1 0.000183985
2 *1153:B 0
3 *1146:B 0
4 *1142:A1 7.99205e-05
5 *1135:A1 0
6 *1131:A0 0.000424081
7 *1139:A1 6.66722e-05
8 *1145:A1 9.70237e-05
9 *1130:X 0
10 *153:90 0.000579255
11 *153:50 0.000684045
12 *153:37 0.00060862
13 *153:33 0.000823384
14 *153:25 0.000685053
15 *153:10 0.00143881
16 *153:4 0.00151349
17 *1131:A0 *1135:A2 2.56601e-05
18 *1139:A1 *1139:A2 1.19794e-05
19 *1142:A1 *1142:A2 0.000150917
20 *1145:A1 *1137:A 0
21 *1145:A1 *158:10 4.0552e-05
22 *1152:A1 *1152:A2 0.000141941
23 *1152:A1 *1153:C 5.50052e-05
24 *153:10 *1137:B 0
25 *153:10 *1145:A2 5.80706e-06
26 *153:10 *200:123 0
27 *153:10 *280:32 0
28 *153:25 *1137:B 0
29 *153:25 *1145:A2 9.10252e-05
30 *153:25 *1146:D 8.80814e-05
31 *153:25 *158:25 6.93626e-06
32 *153:25 *209:16 0
33 *153:33 *1138:A 4.86074e-05
34 *153:33 *1140:A 7.62237e-05
35 *153:33 *1142:A2 0.000182811
36 *153:33 *1146:A 0.000235273
37 *153:33 *158:27 6.62708e-05
38 *153:37 *1139:A2 3.74373e-05
39 *153:37 *1139:A3 0.000195555
40 *153:90 *1020:A 0
41 *153:90 *1023:A 0
42 *153:90 *168:14 4.88537e-05
43 *1129:A *153:10 2.84109e-05
44 *1129:B *153:10 0.000142152
45 *1142:B2 *1142:A1 4.79864e-05
46 *1142:B2 *153:37 0.000153421
47 *1152:B1 *1152:A1 2.60585e-05
48 *1152:B1 *153:90 0.000339697
49 *83:37 *1131:A0 0
50 *83:37 *153:50 0
51 *83:48 *153:37 3.4323e-06
52 *83:48 *153:50 0
53 *83:122 *153:90 0.000126439
54 *151:8 *153:10 9.90431e-05
55 *151:8 *153:90 0.000216121
*RES
1 *1130:X *153:4 9.3 
2 *153:4 *153:10 18.1786 
3 *153:10 *1145:A1 15.5857 
4 *153:10 *153:25 9.48214 
5 *153:25 *153:33 14.1071 
6 *153:33 *153:37 6.88393 
7 *153:37 *1139:A1 14.9161 
8 *153:37 *153:50 4.52679 
9 *153:50 *1131:A0 20.5321 
10 *153:50 *1135:A1 13.8 
11 *153:33 *1142:A1 16.05 
12 *153:25 *1146:B 9.3 
13 *153:4 *153:90 17.0714 
14 *153:90 *1153:B 9.3 
15 *153:90 *1152:A1 11.8893 
*END

*D_NET *154 0.000672504
*CONN
*I *1132:A I *D sky130_fd_sc_hd__clkbuf_1
*I *1131:X O *D sky130_fd_sc_hd__mux2_1
*CAP
1 *1132:A 0.00031697
2 *1131:X 0.00031697
3 *1132:A *200:33 3.85645e-05
*RES
1 *1131:X *1132:A 31.8321 
*END

*D_NET *155 0.000748906
*CONN
*I *1135:A2 I *D sky130_fd_sc_hd__a32o_1
*I *1133:X O *D sky130_fd_sc_hd__or2_1
*CAP
1 *1135:A2 0.000238636
2 *1133:X 0.000238636
3 *1135:A2 *1135:A3 3.69753e-05
4 *1135:A2 *1135:B1 7.71303e-05
5 *1135:A2 *1303:A 5.52238e-05
6 *1131:A0 *1135:A2 2.56601e-05
7 *83:37 *1135:A2 7.6644e-05
*RES
1 *1133:X *1135:A2 31.3679 
*END

*D_NET *156 0.00131083
*CONN
*I *1135:A3 I *D sky130_fd_sc_hd__a32o_1
*I *1134:Y O *D sky130_fd_sc_hd__nand2_1
*CAP
1 *1135:A3 0.000202376
2 *1134:Y 0.000202376
3 *1135:A3 *1133:B 0.000150618
4 *1135:A3 *1134:B 0.000115845
5 *1135:A3 *1135:B1 3.66478e-05
6 *1135:A3 *209:16 2.6949e-05
7 *1135:A3 *280:6 0.000442956
8 *1135:A3 *280:19 4.08637e-05
9 *1135:A2 *1135:A3 3.69753e-05
10 *1135:B2 *1135:A3 5.52238e-05
*RES
1 *1134:Y *1135:A3 34.6179 
*END

*D_NET *157 0.00147711
*CONN
*I *1139:A2 I *D sky130_fd_sc_hd__a32o_1
*I *1136:X O *D sky130_fd_sc_hd__a21o_1
*CAP
1 *1139:A2 0.000469064
2 *1136:X 0.000469064
3 *1139:A2 *1137:C 4.88637e-05
4 *1139:A2 *281:12 0.000440705
5 *1139:A1 *1139:A2 1.19794e-05
6 *153:37 *1139:A2 3.74373e-05
*RES
1 *1136:X *1139:A2 34.6536 
*END

*D_NET *158 0.00334219
*CONN
*I *1146:C I *D sky130_fd_sc_hd__and4_1
*I *1141:B I *D sky130_fd_sc_hd__nand2_1
*I *1140:B I *D sky130_fd_sc_hd__or2_1
*I *1138:A I *D sky130_fd_sc_hd__inv_2
*I *1143:C I *D sky130_fd_sc_hd__and3_1
*I *1137:X O *D sky130_fd_sc_hd__and3_1
*CAP
1 *1146:C 0
2 *1141:B 0.000186824
3 *1140:B 0
4 *1138:A 0.000193451
5 *1143:C 6.21613e-06
6 *1137:X 0.000253136
7 *158:29 0.000356644
8 *158:27 0.000479237
9 *158:25 0.000269437
10 *158:10 0.00039957
11 *1138:A *1140:A 0.000100165
12 *1143:C *1019:A2 1.95435e-05
13 *1143:C *1143:A 1.95435e-05
14 *158:10 *1145:A2 9.89586e-05
15 *158:10 *1146:D 7.95353e-05
16 *158:10 *200:123 0
17 *158:25 *1146:D 9.10894e-05
18 *158:25 *1147:B1 2.51343e-06
19 *158:27 *1146:A 0.000141941
20 *158:29 *1140:A 5.49995e-05
21 *158:29 *1146:A 0.00029908
22 *1142:B2 *1138:A 0.000127939
23 *1145:A1 *158:10 4.0552e-05
24 *153:25 *158:25 6.93626e-06
25 *153:33 *1138:A 4.86074e-05
26 *153:33 *158:27 6.62708e-05
*RES
1 *1137:X *158:10 17.8179 
2 *158:10 *1143:C 13.9964 
3 *158:10 *158:25 7.08929 
4 *158:25 *158:27 2.58929 
5 *158:27 *158:29 3.41071 
6 *158:29 *1138:A 22.55 
7 *158:29 *1140:B 9.3 
8 *158:27 *1141:B 21.4607 
9 *158:25 *1146:C 9.3 
*END

*D_NET *159 0.00119828
*CONN
*I *1139:A3 I *D sky130_fd_sc_hd__a32o_1
*I *1138:Y O *D sky130_fd_sc_hd__inv_2
*CAP
1 *1139:A3 0.000332151
2 *1138:Y 0.000332151
3 *1139:A3 *1139:B1 7.41811e-05
4 *1139:A3 *281:12 9.60993e-05
5 *1142:B2 *1139:A3 0.000146474
6 *83:48 *1139:A3 2.16719e-05
7 *153:37 *1139:A3 0.000195555
*RES
1 *1138:Y *1139:A3 33.6 
*END

*D_NET *160 0.000816188
*CONN
*I *1142:A2 I *D sky130_fd_sc_hd__a32o_1
*I *1140:X O *D sky130_fd_sc_hd__or2_1
*CAP
1 *1142:A2 0.00024123
2 *1140:X 0.00024123
3 *1142:A1 *1142:A2 0.000150917
4 *153:33 *1142:A2 0.000182811
*RES
1 *1140:X *1142:A2 31.725 
*END

*D_NET *161 0.00136036
*CONN
*I *1142:A3 I *D sky130_fd_sc_hd__a32o_1
*I *1141:Y O *D sky130_fd_sc_hd__nand2_1
*CAP
1 *1142:A3 0.000397873
2 *1141:Y 0.000397873
3 *1142:A3 *1141:A 0.000355777
4 *1142:A3 *1142:B1 0.000208834
*RES
1 *1141:Y *1142:A3 26.1357 
*END

*D_NET *162 0.00274006
*CONN
*I *1151:C I *D sky130_fd_sc_hd__nand3_1
*I *1153:C I *D sky130_fd_sc_hd__and4_1
*I *1148:C I *D sky130_fd_sc_hd__and3_1
*I *1144:A I *D sky130_fd_sc_hd__inv_2
*I *1143:X O *D sky130_fd_sc_hd__and3_1
*CAP
1 *1151:C 0
2 *1153:C 0.000191072
3 *1148:C 0
4 *1144:A 1.70962e-05
5 *1143:X 0.000356756
6 *162:30 0.000404389
7 *162:19 0.000437248
8 *162:8 0.000597784
9 *1153:C *1151:B 0.000103437
10 *1153:C *284:14 1.84776e-05
11 *162:8 *163:8 0.000355002
12 *1148:A *162:30 5.65955e-05
13 *1148:B *162:30 8.35526e-05
14 *1152:A1 *1153:C 5.50052e-05
15 *1152:B1 *1153:C 6.3649e-05
*RES
1 *1143:X *162:8 14.5679 
2 *162:8 *1144:A 9.83571 
3 *162:8 *162:19 3.28571 
4 *162:19 *1148:C 9.3 
5 *162:19 *162:30 4.51786 
6 *162:30 *1153:C 22.1393 
7 *162:30 *1151:C 9.3 
*END

*D_NET *163 0.00170593
*CONN
*I *1146:D I *D sky130_fd_sc_hd__and4_1
*I *1145:A2 I *D sky130_fd_sc_hd__a21o_1
*I *1144:Y O *D sky130_fd_sc_hd__inv_2
*CAP
1 *1146:D 9.27344e-05
2 *1145:A2 9.59052e-05
3 *1144:Y 0.000154986
4 *163:8 0.000343626
5 *1145:A2 *200:123 0
6 *163:8 *1019:A2 9.61161e-05
7 *163:8 *1143:A 9.44309e-06
8 *163:8 *1143:B 5.33005e-05
9 *163:8 *283:14 5.03239e-05
10 *153:10 *1145:A2 5.80706e-06
11 *153:25 *1145:A2 9.10252e-05
12 *153:25 *1146:D 8.80814e-05
13 *158:10 *1145:A2 9.89586e-05
14 *158:10 *1146:D 7.95353e-05
15 *158:25 *1146:D 9.10894e-05
16 *162:8 *163:8 0.000355002
*RES
1 *1144:Y *163:8 18.4429 
2 *163:8 *1145:A2 16.05 
3 *163:8 *1146:D 16.05 
*END

*D_NET *164 0.00235512
*CONN
*I *1149:A1 I *D sky130_fd_sc_hd__mux2_1
*I *1147:A2 I *D sky130_fd_sc_hd__a21o_1
*I *1145:X O *D sky130_fd_sc_hd__a21o_1
*CAP
1 *1149:A1 0.000149276
2 *1147:A2 6.29902e-05
3 *1145:X 0.000249685
4 *164:12 0.000461951
5 *1147:A2 *1147:A1 7.25873e-06
6 *1149:A1 *1019:B1 0.000401481
7 *1149:A1 *1149:A0 5.65955e-05
8 *1149:A1 *1150:A 6.56786e-05
9 *164:12 *1019:B1 0.000317033
10 *164:12 *200:123 0.000526011
11 *1145:B1 *164:12 1.92905e-05
12 *73:18 *164:12 3.78739e-05
*RES
1 *1145:X *164:12 25.6393 
2 *164:12 *1147:A2 10.2464 
3 *164:12 *1149:A1 13.9607 
*END

*D_NET *165 0.000316658
*CONN
*I *1147:B1 I *D sky130_fd_sc_hd__a21o_1
*I *1146:X O *D sky130_fd_sc_hd__and4_1
*CAP
1 *1147:B1 0.000157073
2 *1146:X 0.000157073
3 *158:25 *1147:B1 2.51343e-06
*RES
1 *1146:X *1147:B1 30.0821 
*END

*D_NET *166 0.000741831
*CONN
*I *1149:A0 I *D sky130_fd_sc_hd__mux2_1
*I *1148:X O *D sky130_fd_sc_hd__and3_1
*CAP
1 *1149:A0 0.000306912
2 *1148:X 0.000306912
3 *1149:A0 *1019:B1 1.64621e-05
4 *1149:A0 *284:36 5.49489e-05
5 *1149:A1 *1149:A0 5.65955e-05
*RES
1 *1148:X *1149:A0 33.3321 
*END

*D_NET *167 0.000550695
*CONN
*I *1150:A I *D sky130_fd_sc_hd__clkbuf_1
*I *1149:X O *D sky130_fd_sc_hd__mux2_1
*CAP
1 *1150:A 0.000184737
2 *1149:X 0.000184737
3 *1150:A *200:123 6.97972e-05
4 *1150:A *283:14 4.57445e-05
5 *1149:A1 *1150:A 6.56786e-05
*RES
1 *1149:X *1150:A 31.0107 
*END

*D_NET *168 0.00132996
*CONN
*I *1155:A_N I *D sky130_fd_sc_hd__and2b_1
*I *1152:A2 I *D sky130_fd_sc_hd__a21o_1
*I *1153:D I *D sky130_fd_sc_hd__and4_1
*I *1151:Y O *D sky130_fd_sc_hd__nand3_1
*CAP
1 *1155:A_N 0.000166631
2 *1152:A2 4.6417e-05
3 *1153:D 0
4 *1151:Y 7.02185e-05
5 *168:14 0.000132347
6 *168:8 0.000322779
7 *1155:A_N *1151:A 0.000215641
8 *168:8 *1151:A 9.84729e-05
9 *1152:A1 *1152:A2 0.000141941
10 *1152:B1 *1152:A2 7.97268e-05
11 *1152:B1 *168:14 6.93626e-06
12 *153:90 *168:14 4.88537e-05
*RES
1 *1151:Y *168:8 10.675 
2 *168:8 *168:14 10.6429 
3 *168:14 *1153:D 9.3 
4 *168:14 *1152:A2 11.0857 
5 *168:8 *1155:A_N 12.3 
*END

*D_NET *169 0.000667759
*CONN
*I *1156:A1 I *D sky130_fd_sc_hd__mux2_1
*I *1154:A2 I *D sky130_fd_sc_hd__a21o_1
*I *1152:X O *D sky130_fd_sc_hd__a21o_1
*CAP
1 *1156:A1 0.000137234
2 *1154:A2 2.59985e-05
3 *1152:X 8.2159e-05
4 *169:10 0.000245392
5 *1156:A1 *1156:S 5.66971e-05
6 *169:10 *1020:A 8.01554e-05
7 *169:10 *229:10 5.54817e-06
8 *1228:D *1154:A2 2.85234e-05
9 *1228:D *1156:A1 6.05161e-06
*RES
1 *1152:X *169:10 20.2464 
2 *169:10 *1154:A2 9.83571 
3 *169:10 *1156:A1 11.8893 
*END

*D_NET *170 0.000489987
*CONN
*I *1154:B1 I *D sky130_fd_sc_hd__a21o_1
*I *1153:X O *D sky130_fd_sc_hd__and4_1
*CAP
1 *1154:B1 0.000142056
2 *1153:X 0.000142056
3 *1154:B1 *285:10 0.000150917
4 *1152:B1 *1154:B1 5.4959e-05
*RES
1 *1153:X *1154:B1 30.4929 
*END

*D_NET *171 0.00077928
*CONN
*I *1156:A0 I *D sky130_fd_sc_hd__mux2_1
*I *1155:X O *D sky130_fd_sc_hd__and2b_1
*CAP
1 *1156:A0 0.000303656
2 *1155:X 0.000303656
3 *1156:A0 *210:31 8.08608e-06
4 *1156:A0 *286:21 0.000163883
*RES
1 *1155:X *1156:A0 33.3321 
*END

*D_NET *172 0.000463366
*CONN
*I *1157:A I *D sky130_fd_sc_hd__clkbuf_1
*I *1156:X O *D sky130_fd_sc_hd__mux2_1
*CAP
1 *1157:A 0.000155463
2 *1156:X 0.000155463
3 *1157:A *210:31 0.00015244
*RES
1 *1156:X *1157:A 30.9036 
*END

*D_NET *173 0.0095807
*CONN
*I *1172:B2 I *D sky130_fd_sc_hd__a22o_1
*I *1168:A3 I *D sky130_fd_sc_hd__a31o_1
*I *1167:A1 I *D sky130_fd_sc_hd__a21o_1
*I *1160:A0 I *D sky130_fd_sc_hd__mux2_1
*I *1181:A1 I *D sky130_fd_sc_hd__a32o_1
*I *1184:A1 I *D sky130_fd_sc_hd__a21o_1
*I *1158:X O *D sky130_fd_sc_hd__or2_2
*CAP
1 *1172:B2 3.37696e-05
2 *1168:A3 0.000186339
3 *1167:A1 0.000116328
4 *1160:A0 5.0528e-05
5 *1181:A1 0.000348251
6 *1184:A1 5.15662e-05
7 *1158:X 0.000614795
8 *173:59 0.000302667
9 *173:57 0.000537449
10 *173:42 0.000850832
11 *173:21 0.00116964
12 *173:10 0.00119113
13 *1160:A0 *1160:A1 6.05161e-06
14 *1167:A1 *1167:A2 5.74242e-05
15 *1167:A1 *1168:A2 0.00010187
16 *1167:A1 *1240:A 1.90223e-05
17 *1167:A1 *266:23 5.99211e-05
18 *1167:A1 *266:25 2.20029e-05
19 *1168:A3 *1168:A2 0.000125731
20 *1168:A3 *1168:B1 5.80706e-06
21 *1168:A3 *1169:A 0
22 *1168:A3 *266:23 0
23 *1181:A1 *1181:A2 1.02132e-05
24 *1181:A1 *1181:B2 0.000185097
25 *1181:A1 *270:8 0.000175741
26 *1184:A1 *1184:A2 6.05161e-06
27 *1184:A1 *174:35 6.05161e-06
28 *173:10 *1159:B1 0.000126629
29 *173:10 *1189:B2 0
30 *173:10 *1190:B2 5.63882e-05
31 *173:10 *174:10 0.000534229
32 *173:10 *174:35 0.00012561
33 *173:10 *174:81 0.000122159
34 *173:10 *192:14 0.000125724
35 *173:21 *174:35 4.60835e-05
36 *173:21 *174:41 0
37 *173:21 *192:10 0.000189448
38 *173:21 *192:14 9.25014e-06
39 *173:21 *270:12 3.33175e-05
40 *173:21 *270:16 0.000157945
41 *173:21 *271:23 0.000125731
42 *173:42 *270:12 2.93426e-05
43 *1112:S *1172:B2 4.58194e-05
44 *1112:S *173:57 0.000760642
45 *1115:A1 *173:57 0
46 *1118:A0 *1172:B2 4.43256e-05
47 *1118:A0 *173:57 0.000667453
48 *1159:A2 *173:10 8.00346e-05
49 *1231:D *173:57 0
50 *105:126 *173:57 6.62898e-05
*RES
1 *1158:X *173:10 27.2643 
2 *173:10 *1184:A1 14.3357 
3 *173:10 *173:21 9.83929 
4 *173:21 *1181:A1 29.9429 
5 *173:21 *173:42 4.98214 
6 *173:42 *1160:A0 14.3357 
7 *173:42 *173:57 21.2321 
8 *173:57 *173:59 4.5 
9 *173:59 *1167:A1 17.2643 
10 *173:59 *1168:A3 17.1214 
11 *173:57 *1172:B2 10.2464 
*END

*D_NET *174 0.0101357
*CONN
*I *1167:B1 I *D sky130_fd_sc_hd__a21o_1
*I *1165:B1 I *D sky130_fd_sc_hd__a32o_1
*I *1160:A1 I *D sky130_fd_sc_hd__mux2_1
*I *1177:A I *D sky130_fd_sc_hd__nor2_1
*I *1178:A1 I *D sky130_fd_sc_hd__o22a_1
*I *1186:A I *D sky130_fd_sc_hd__nor2_1
*I *1184:B1 I *D sky130_fd_sc_hd__a21o_1
*I *1181:B1 I *D sky130_fd_sc_hd__a32o_1
*I *1182:A I *D sky130_fd_sc_hd__nor2_1
*I *1190:B2 I *D sky130_fd_sc_hd__o22a_1
*I *1159:X O *D sky130_fd_sc_hd__a31o_2
*CAP
1 *1167:B1 0.000287193
2 *1165:B1 0.000109435
3 *1160:A1 0.000281411
4 *1177:A 0
5 *1178:A1 0
6 *1186:A 0
7 *1184:B1 0
8 *1181:B1 0.000294326
9 *1182:A 2.9734e-05
10 *1190:B2 0.000159316
11 *1159:X 0
12 *174:113 0.000528538
13 *174:109 0.000877178
14 *174:94 0.000622626
15 *174:81 0.00051322
16 *174:41 0.000733943
17 *174:35 0.000596711
18 *174:12 0.000346144
19 *174:10 0.000150831
20 *174:4 0.000493717
21 *1160:A1 *1160:S 0.000617483
22 *1165:B1 *1165:A1 2.39852e-05
23 *1165:B1 *1165:A2 5.54817e-06
24 *1165:B1 *1165:A3 9.51014e-06
25 *1165:B1 *1165:B2 8.61222e-05
26 *1167:B1 *1166:A 0.000236563
27 *1167:B1 *1167:A2 0.000107989
28 *1181:B1 *1181:A2 1.1671e-05
29 *1181:B1 *1181:A3 1.25924e-05
30 *1181:B1 *1182:B 0
31 *1181:B1 *1183:C 8.73766e-05
32 *1182:A *225:12 1.83053e-05
33 *1190:B2 *1190:A2 3.84349e-05
34 *174:10 *1189:B2 0.000230475
35 *174:41 *1183:C 4.00025e-05
36 *174:41 *1185:A1 8.00806e-05
37 *174:41 *1185:A2 3.84349e-05
38 *174:41 *1185:B1 3.26264e-05
39 *174:41 *199:24 0
40 *174:41 *199:34 0
41 *174:81 *1165:A2 2.18733e-05
42 *174:81 *1175:B1_N 0
43 *174:81 *1178:A2 8.00806e-05
44 *174:81 *1178:B1 4.1331e-06
45 *174:81 *1178:B2 9.25014e-06
46 *174:94 *1178:B1 0.000110923
47 *174:94 *1178:B2 0.000376471
48 *174:94 *185:22 5.50052e-05
49 *174:94 *269:25 2.12733e-05
50 *174:109 *1177:B 5.66971e-05
51 *174:109 *185:22 4.04415e-05
52 *174:109 *265:10 4.27842e-06
53 *174:109 *265:14 9.86497e-05
54 *174:109 *269:25 0.000141935
55 *174:113 *1160:S 0.000137639
56 *1159:A1 *174:81 0
57 *1159:A2 *174:81 9.90367e-05
58 *1159:A3 *174:10 0.000178943
59 *1159:A3 *174:81 0.00010096
60 *1160:A0 *1160:A1 6.05161e-06
61 *1184:A1 *174:35 6.05161e-06
62 *173:10 *1190:B2 5.63882e-05
63 *173:10 *174:10 0.000534229
64 *173:10 *174:35 0.00012561
65 *173:10 *174:81 0.000122159
66 *173:21 *174:35 4.60835e-05
67 *173:21 *174:41 0
*RES
1 *1159:X *174:4 9.3 
2 *174:4 *174:10 6.32143 
3 *174:10 *174:12 4.5 
4 *174:12 *1190:B2 16.6571 
5 *174:12 *174:35 8.27679 
6 *174:35 *174:41 11.6607 
7 *174:41 *1182:A 14.3357 
8 *174:41 *1181:B1 18.2732 
9 *174:35 *1184:B1 9.3 
10 *174:10 *1186:A 9.3 
11 *174:4 *174:81 11.6607 
12 *174:81 *1178:A1 13.8 
13 *174:81 *174:94 10.0179 
14 *174:94 *1177:A 9.3 
15 *174:94 *174:109 17.8929 
16 *174:109 *174:113 2.60714 
17 *174:113 *1160:A1 15.9964 
18 *174:113 *1165:B1 20.7911 
19 *174:109 *1167:B1 15.1929 
*END

*D_NET *175 0.000294511
*CONN
*I *1161:A I *D sky130_fd_sc_hd__clkbuf_1
*I *1160:X O *D sky130_fd_sc_hd__mux2_1
*CAP
1 *1161:A 0.000136774
2 *1160:X 0.000136774
3 *1230:D *1161:A 2.09634e-05
*RES
1 *1160:X *1161:A 21.1 
*END

*D_NET *176 0.000566382
*CONN
*I *1165:A1 I *D sky130_fd_sc_hd__a32o_1
*I *1162:X O *D sky130_fd_sc_hd__or2_1
*CAP
1 *1165:A1 0.000184735
2 *1162:X 0.000184735
3 *1165:A1 *1164:A 0.00010216
4 *1165:A1 *1165:A3 3.97768e-05
5 *1165:A1 *265:20 3.09896e-05
6 *1165:B1 *1165:A1 2.39852e-05
*RES
1 *1162:X *1165:A1 22.0107 
*END

*D_NET *177 0.00243992
*CONN
*I *1165:A2 I *D sky130_fd_sc_hd__a32o_1
*I *1163:X O *D sky130_fd_sc_hd__or2_1
*CAP
1 *1165:A2 0.000908952
2 *1163:X 0.000908952
3 *1165:A2 *1175:B1_N 2.53634e-05
4 *1165:A2 *1178:A2 4.15914e-05
5 *1165:A2 *1178:B2 0.00026149
6 *1165:B1 *1165:A2 5.54817e-06
7 *1234:D *1165:A2 0.000115614
8 *108:23 *1165:A2 0.000150539
9 *174:81 *1165:A2 2.18733e-05
*RES
1 *1163:X *1165:A2 44.475 
*END

*D_NET *178 0.000668298
*CONN
*I *1165:A3 I *D sky130_fd_sc_hd__a32o_1
*I *1164:Y O *D sky130_fd_sc_hd__nand2_1
*CAP
1 *1165:A3 0.000281157
2 *1164:Y 0.000281157
3 *1165:A3 *265:20 5.66971e-05
4 *1165:A1 *1165:A3 3.97768e-05
5 *1165:B1 *1165:A3 9.51014e-06
*RES
1 *1164:Y *1165:A3 22.6357 
*END

*D_NET *179 0.00102611
*CONN
*I *1171:B I *D sky130_fd_sc_hd__nor2_1
*I *1167:A2 I *D sky130_fd_sc_hd__a21o_1
*I *1166:Y O *D sky130_fd_sc_hd__nand3_1
*CAP
1 *1171:B 0.00012991
2 *1167:A2 0.000192596
3 *1166:Y 0
4 *179:4 0.000322507
5 *1167:A2 *1166:A 1.83253e-05
6 *1167:A2 *1168:A2 5.5764e-05
7 *1167:A2 *180:16 2.09634e-05
8 *1171:B *1166:A 8.85045e-06
9 *1171:B *1166:C 6.83046e-05
10 *1171:B *1171:A 7.30633e-07
11 *1171:B *1172:B1 4.27478e-05
12 *1167:A1 *1167:A2 5.74242e-05
13 *1167:B1 *1167:A2 0.000107989
*RES
1 *1166:Y *179:4 9.3 
2 *179:4 *1167:A2 21.7464 
3 *179:4 *1171:B 11.925 
*END

*D_NET *180 0.00135789
*CONN
*I *1169:A I *D sky130_fd_sc_hd__and2_1
*I *1172:A2 I *D sky130_fd_sc_hd__a22o_1
*I *1167:X O *D sky130_fd_sc_hd__a21o_1
*CAP
1 *1169:A 0.000134571
2 *1172:A2 0
3 *1167:X 0.000148871
4 *180:16 0.000283442
5 *1169:A *1168:A2 0
6 *1169:A *1172:A1 9.83388e-05
7 *1169:A *267:23 8.25218e-05
8 *180:16 *1166:A 5.49544e-05
9 *180:16 *1168:A2 0.000172718
10 *180:16 *1172:A1 2.36643e-05
11 *180:16 *1172:B1 0.000125724
12 *180:16 *267:23 0
13 *1112:S *180:16 2.55889e-05
14 *1118:A0 *1169:A 4.73286e-05
15 *1118:A0 *180:16 0.000139208
16 *1167:A2 *180:16 2.09634e-05
17 *1168:A3 *1169:A 0
*RES
1 *1167:X *180:16 22.8714 
2 *180:16 *1172:A2 9.3 
3 *180:16 *1169:A 21.4964 
*END

*D_NET *181 0.000217106
*CONN
*I *1169:B I *D sky130_fd_sc_hd__and2_1
*I *1168:X O *D sky130_fd_sc_hd__a31o_1
*CAP
1 *1169:B 9.31196e-05
2 *1168:X 9.31196e-05
3 *1169:B *1170:A 3.08664e-05
*RES
1 *1168:X *1169:B 20.3857 
*END

*D_NET *182 0.000880497
*CONN
*I *1170:A I *D sky130_fd_sc_hd__clkbuf_1
*I *1169:X O *D sky130_fd_sc_hd__and2_1
*CAP
1 *1170:A 0.00031539
2 *1169:X 0.00031539
3 *1170:A *1168:A1 5.17614e-05
4 *1170:A *1168:A2 1.40415e-05
5 *1170:A *1168:B1 0.000153047
6 *1170:A *266:12 0
7 *1169:B *1170:A 3.08664e-05
*RES
1 *1169:X *1170:A 32.5464 
*END

*D_NET *183 0.000770055
*CONN
*I *1172:B1 I *D sky130_fd_sc_hd__a22o_1
*I *1171:Y O *D sky130_fd_sc_hd__nor2_1
*CAP
1 *1172:B1 0.000266595
2 *1171:Y 0.000266595
3 *1172:B1 *1166:A 5.65955e-05
4 *1172:B1 *1168:A2 1.17968e-05
5 *1171:B *1172:B1 4.27478e-05
6 *180:16 *1172:B1 0.000125724
*RES
1 *1171:Y *1172:B1 31.725 
*END

*D_NET *184 0.000719972
*CONN
*I *1176:B I *D sky130_fd_sc_hd__nand2_1
*I *1174:C I *D sky130_fd_sc_hd__and3_1
*I *1173:X O *D sky130_fd_sc_hd__and3_1
*CAP
1 *1176:B 0.000141968
2 *1174:C 0
3 *1173:X 8.85416e-05
4 *184:6 0.000230509
5 *1176:B *1174:A 5.49544e-05
6 *1176:B *1177:B 1.59373e-05
7 *1176:B *268:25 0
8 *1176:B *268:33 5.38444e-06
9 *1176:B *269:25 5.40546e-05
10 *184:6 *269:25 0.000128623
*RES
1 *1173:X *184:6 10.5411 
2 *184:6 *1174:C 9.3 
3 *184:6 *1176:B 11.5054 
*END

*D_NET *185 0.00676207
*CONN
*I *1175:B1_N I *D sky130_fd_sc_hd__o21ba_1
*I *1180:B I *D sky130_fd_sc_hd__nand2_1
*I *1179:B I *D sky130_fd_sc_hd__or2_1
*I *1183:C I *D sky130_fd_sc_hd__nand3_1
*I *1174:X O *D sky130_fd_sc_hd__and3_1
*CAP
1 *1175:B1_N 0.000696374
2 *1180:B 0
3 *1179:B 1.29568e-05
4 *1183:C 0.000339395
5 *1174:X 0.000384827
6 *185:26 0.000385588
7 *185:22 0.000668585
8 *185:10 0.00171655
9 *1175:B1_N *1049:C 2.59093e-05
10 *1175:B1_N *1049:D 0
11 *1175:B1_N *1173:B 0.000100451
12 *1175:B1_N *1178:B1 0
13 *1179:B *1179:A 5.38444e-06
14 *1179:B *1180:A 5.38444e-06
15 *1183:C *1179:A 5.45307e-05
16 *1183:C *1185:A1 7.83587e-05
17 *1183:C *1185:B1 2.84026e-05
18 *1183:C *199:24 0.000141734
19 *1183:C *271:8 3.05605e-05
20 *185:10 *1049:A_N 0.000136733
21 *185:10 *1049:C 2.38501e-05
22 *185:10 *1049:D 2.59355e-05
23 *185:10 *1173:B 0.000184505
24 *185:10 *1177:B 0.000392378
25 *185:22 *1049:A_N 5.49995e-05
26 *185:22 *1177:B 0.000154904
27 *185:22 *1180:A 2.48034e-05
28 *185:22 *199:14 5.33005e-05
29 *185:22 *199:24 3.01159e-05
30 *185:22 *270:53 0.000106989
31 *185:26 *1179:A 2.36643e-05
32 *185:26 *1180:A 6.68086e-05
33 *185:26 *199:24 0.000147256
34 *185:26 *270:53 9.76435e-06
35 *1159:A1 *1175:B1_N 0
36 *1165:A2 *1175:B1_N 2.53634e-05
37 *1175:A1 *1175:B1_N 9.90367e-05
38 *1181:B1 *1183:C 8.73766e-05
39 *1234:D *185:22 0.00027659
40 *91:8 *1175:B1_N 0
41 *100:8 *1175:B1_N 0
42 *108:23 *1175:B1_N 2.72587e-05
43 *174:41 *1183:C 4.00025e-05
44 *174:81 *1175:B1_N 0
45 *174:94 *185:22 5.50052e-05
46 *174:109 *185:22 4.04415e-05
*RES
1 *1174:X *185:10 16.55 
2 *185:10 *185:22 12.5357 
3 *185:22 *185:26 1.78571 
4 *185:26 *1183:C 25.3893 
5 *185:26 *1179:B 9.72857 
6 *185:22 *1180:B 9.3 
7 *185:10 *1175:B1_N 29.4429 
*END

*D_NET *186 0.000179565
*CONN
*I *1178:A2 I *D sky130_fd_sc_hd__o22a_1
*I *1175:X O *D sky130_fd_sc_hd__o21ba_1
*CAP
1 *1178:A2 2.89467e-05
2 *1175:X 2.89467e-05
3 *1165:A2 *1178:A2 4.15914e-05
4 *174:81 *1178:A2 8.00806e-05
*RES
1 *1175:X *1178:A2 28.6357 
*END

*D_NET *187 0.00233185
*CONN
*I *1177:B I *D sky130_fd_sc_hd__nor2_1
*I *1176:Y O *D sky130_fd_sc_hd__nand2_1
*CAP
1 *1177:B 0.000289931
2 *1176:Y 0.000289931
3 *1177:B *1049:A_N 6.62058e-05
4 *1177:B *1049:B_N 9.84673e-05
5 *1177:B *1049:C 9.41642e-05
6 *1177:B *1049:D 5.33005e-05
7 *1177:B *1173:A 0.000254235
8 *1177:B *1173:C 0.000185118
9 *1177:B *1174:A 2.23592e-05
10 *1177:B *268:33 0.000161618
11 *1177:B *269:25 0.000196605
12 *1176:B *1177:B 1.59373e-05
13 *174:109 *1177:B 5.66971e-05
14 *185:10 *1177:B 0.000392378
15 *185:22 *1177:B 0.000154904
*RES
1 *1176:Y *1177:B 30.3679 
*END

*D_NET *188 0.00107212
*CONN
*I *1178:B1 I *D sky130_fd_sc_hd__o22a_1
*I *1177:Y O *D sky130_fd_sc_hd__nor2_1
*CAP
1 *1178:B1 0.000370989
2 *1177:Y 0.000370989
3 *1178:B1 *1178:B2 9.90431e-05
4 *1178:B1 *270:27 0.000116039
5 *1175:B1_N *1178:B1 0
6 *174:81 *1178:B1 4.1331e-06
7 *174:94 *1178:B1 0.000110923
*RES
1 *1177:Y *1178:B1 35.5286 
*END

*D_NET *189 0.000457651
*CONN
*I *1181:A2 I *D sky130_fd_sc_hd__a32o_1
*I *1179:X O *D sky130_fd_sc_hd__or2_1
*CAP
1 *1181:A2 0.00010404
2 *1179:X 0.00010404
3 *1181:A2 *199:24 0.000227687
4 *1181:A1 *1181:A2 1.02132e-05
5 *1181:B1 *1181:A2 1.1671e-05
*RES
1 *1179:X *1181:A2 21.2071 
*END

*D_NET *190 0.00173574
*CONN
*I *1181:A3 I *D sky130_fd_sc_hd__a32o_1
*I *1182:B I *D sky130_fd_sc_hd__nor2_1
*I *1180:Y O *D sky130_fd_sc_hd__nand2_1
*CAP
1 *1181:A3 6.27521e-05
2 *1182:B 0.000163806
3 *1180:Y 0.000355012
4 *190:8 0.00058157
5 *1182:B *199:24 0
6 *1182:B *225:12 3.42509e-05
7 *190:8 *199:24 0.000525753
8 *1181:B1 *1181:A3 1.25924e-05
9 *1181:B1 *1182:B 0
*RES
1 *1180:Y *190:8 18.8536 
2 *190:8 *1182:B 16.6929 
3 *190:8 *1181:A3 14.8357 
*END

*D_NET *191 0.000333406
*CONN
*I *1185:A2 I *D sky130_fd_sc_hd__o21a_1
*I *1182:Y O *D sky130_fd_sc_hd__nor2_1
*CAP
1 *1185:A2 0.00010408
2 *1182:Y 0.00010408
3 *1185:A2 *1185:A1 2.00031e-05
4 *1185:A2 *1185:B1 6.68086e-05
5 *1185:A2 *199:24 0
6 *174:41 *1185:A2 3.84349e-05
*RES
1 *1182:Y *1185:A2 29.9036 
*END

*D_NET *192 0.00253475
*CONN
*I *1184:A2 I *D sky130_fd_sc_hd__a21o_1
*I *1189:B2 I *D sky130_fd_sc_hd__o221a_1
*I *1186:B I *D sky130_fd_sc_hd__nor2_1
*I *1183:Y O *D sky130_fd_sc_hd__nand3_1
*CAP
1 *1184:A2 7.86136e-05
2 *1189:B2 0.000446656
3 *1186:B 0
4 *1183:Y 0.000175443
5 *192:14 0.000525221
6 *192:10 0.000332621
7 *1189:B2 *1189:B1 3.41848e-05
8 *1189:B2 *1190:A2 0
9 *1189:B2 *1190:B1 0
10 *1189:B2 *272:21 0
11 *192:10 *271:8 1.24368e-05
12 *192:10 *271:23 1.21258e-05
13 *1109:S *1189:B2 0.000127939
14 *1159:A3 *1189:B2 0.000228558
15 *1184:A1 *1184:A2 6.05161e-06
16 *173:10 *1189:B2 0
17 *173:10 *192:14 0.000125724
18 *173:21 *192:10 0.000189448
19 *173:21 *192:14 9.25014e-06
20 *174:10 *1189:B2 0.000230475
*RES
1 *1183:Y *192:10 16.8893 
2 *192:10 *192:14 6.14286 
3 *192:14 *1186:B 9.3 
4 *192:14 *1189:B2 28.1929 
5 *192:10 *1184:A2 15.0679 
*END

*D_NET *193 0.000829292
*CONN
*I *1185:B1 I *D sky130_fd_sc_hd__o21a_1
*I *1184:X O *D sky130_fd_sc_hd__a21o_1
*CAP
1 *1185:B1 0.000188211
2 *1184:X 0.000188211
3 *1185:B1 *1185:A1 5.52302e-05
4 *1185:B1 *271:8 0.000269802
5 *1183:C *1185:B1 2.84026e-05
6 *1185:A2 *1185:B1 6.68086e-05
7 *174:41 *1185:B1 3.26264e-05
*RES
1 *1184:X *1185:B1 32.2607 
*END

*D_NET *194 0.00013997
*CONN
*I *1190:A2 I *D sky130_fd_sc_hd__o22a_1
*I *1186:Y O *D sky130_fd_sc_hd__nor2_1
*CAP
1 *1190:A2 5.07674e-05
2 *1186:Y 5.07674e-05
3 *1189:B2 *1190:A2 0
4 *1190:B2 *1190:A2 3.84349e-05
*RES
1 *1186:Y *1190:A2 28.6357 
*END

*D_NET *195 0.000421295
*CONN
*I *1189:B1 I *D sky130_fd_sc_hd__o221a_1
*I *1187:Y O *D sky130_fd_sc_hd__inv_2
*CAP
1 *1189:B1 0.000111033
2 *1187:Y 0.000111033
3 *1189:B1 *1189:A1 5.49995e-05
4 *1189:B1 *1189:A2 3.11088e-05
5 *1109:S *1189:B1 7.89362e-05
6 *1189:B2 *1189:B1 3.41848e-05
*RES
1 *1187:Y *1189:B1 30.0821 
*END

*D_NET *196 0.00152469
*CONN
*I *1189:C1 I *D sky130_fd_sc_hd__o221a_1
*I *1188:Y O *D sky130_fd_sc_hd__nand2_1
*CAP
1 *1189:C1 0.000170537
2 *1188:Y 0.000170537
3 *1189:C1 *1050:A 2.85234e-05
4 *1189:C1 *1189:A1 0.000171624
5 *1189:C1 *1189:A2 0.00048708
6 *1189:C1 *276:43 8.18835e-05
7 *1189:C1 *276:45 7.01807e-05
8 *1189:C1 *277:38 0.000313215
9 *1188:B *1189:C1 3.11088e-05
*RES
1 *1188:Y *1189:C1 26.5464 
*END

*D_NET *197 0.000696815
*CONN
*I *1190:B1 I *D sky130_fd_sc_hd__o22a_1
*I *1189:X O *D sky130_fd_sc_hd__o221a_1
*CAP
1 *1190:B1 0.000348408
2 *1189:X 0.000348408
3 *1189:B2 *1190:B1 0
*RES
1 *1189:X *1190:B1 33.1536 
*END

*D_NET *198 0.00710583
*CONN
*I *1242:A I *D sky130_fd_sc_hd__clkbuf_16
*I *1241:A I *D sky130_fd_sc_hd__clkbuf_16
*I *1239:A I *D sky130_fd_sc_hd__clkbuf_16
*I *1240:A I *D sky130_fd_sc_hd__clkbuf_16
*I *1238:X O *D sky130_fd_sc_hd__clkbuf_16
*CAP
1 *1242:A 0.00043286
2 *1241:A 0
3 *1239:A 0
4 *1240:A 0.00040072
5 *1238:X 8.5642e-05
6 *198:14 0.00102863
7 *198:12 0.00132756
8 *198:8 0.00121816
9 *1240:A *1049:A_N 7.03515e-05
10 *1240:A *1049:C 4.95976e-05
11 *1240:A *1049:D 0.000192707
12 *1240:A *266:25 0.000126278
13 *1240:A *266:27 0.000385087
14 *1242:A *210:31 0
15 *1242:A *291:10 4.68532e-05
16 *1242:A *291:25 4.87841e-05
17 *198:12 *273:49 0
18 *198:14 *1048:B_N 0.000185118
19 *198:14 *1048:C 0.000143652
20 *198:14 *1173:B 9.3111e-05
21 *198:14 *225:12 0.000448873
22 *198:14 *268:43 4.56405e-05
23 *198:14 *271:42 0.000224583
24 *1080:A *1242:A 0
25 *1084:A *198:12 6.44649e-05
26 *1119:A *198:12 0
27 *1167:A1 *1240:A 1.90223e-05
28 *1200:D *1242:A 0
29 *121:21 *198:12 0.000112539
30 *140:12 *198:12 0
31 *142:10 *1242:A 6.35798e-05
32 *142:10 *198:12 0.000292014
*RES
1 *1238:X *198:8 14.7464 
2 *198:8 *198:12 20.1071 
3 *198:12 *198:14 15.3214 
4 *198:14 *1240:A 27.8357 
5 *198:14 *1239:A 9.3 
6 *198:12 *1241:A 9.3 
7 *198:8 *1242:A 22.425 
*END

*D_NET *199 0.0159474
*CONN
*I *1234:CLK I *D sky130_fd_sc_hd__dfxtp_1
*I *1236:CLK I *D sky130_fd_sc_hd__dfxtp_2
*I *1230:CLK I *D sky130_fd_sc_hd__dfxtp_1
*I *1216:CLK I *D sky130_fd_sc_hd__dfxtp_1
*I *1235:CLK I *D sky130_fd_sc_hd__dfxtp_1
*I *1237:CLK I *D sky130_fd_sc_hd__dfxtp_2
*I *1212:CLK I *D sky130_fd_sc_hd__dfxtp_2
*I *1213:CLK I *D sky130_fd_sc_hd__dfxtp_2
*I *1205:CLK I *D sky130_fd_sc_hd__dfxtp_1
*I *1215:CLK I *D sky130_fd_sc_hd__dfxtp_1
*I *1239:X O *D sky130_fd_sc_hd__clkbuf_16
*CAP
1 *1234:CLK 0
2 *1236:CLK 0
3 *1230:CLK 0.000654418
4 *1216:CLK 0
5 *1235:CLK 0
6 *1237:CLK 0
7 *1212:CLK 0.000584506
8 *1213:CLK 0
9 *1205:CLK 0
10 *1215:CLK 0.000785929
11 *1239:X 0.000190727
12 *199:112 0.00103417
13 *199:101 0.000706225
14 *199:95 0.000639757
15 *199:68 0.000664577
16 *199:61 0.000636702
17 *199:44 0.00174936
18 *199:34 0.00108794
19 *199:24 0.00156814
20 *199:14 0.000764439
21 *1212:CLK *1063:A_N 0.000227526
22 *1212:CLK *278:25 0.000130419
23 *1230:CLK *1112:A1 3.92854e-05
24 *1230:CLK *1296:A 8.18471e-05
25 *199:14 *225:12 0.000196968
26 *199:14 *270:16 0.000196314
27 *199:14 *271:30 0.000361914
28 *199:44 *1248:A 0.000125736
29 *199:44 *1295:A 0
30 *199:61 *1089:B1 0
31 *199:61 *1205:D 2.38651e-06
32 *199:101 *203:10 0.0003116
33 *199:112 *203:10 0.000400778
34 rx_data[2] *199:112 0
35 *1112:S *1230:CLK 0.000274667
36 *1113:A *1230:CLK 0
37 *1181:A2 *199:24 0.000227687
38 *1182:B *199:24 0
39 *1183:C *199:24 0.000141734
40 *1185:A2 *199:24 0
41 *1212:D *1212:CLK 1.97695e-05
42 *1213:D *1212:CLK 0.000231818
43 *1215:D *1215:CLK 5.33091e-06
44 *1216:D *1230:CLK 5.7298e-05
45 *1234:D *199:14 0
46 *1236:D *199:95 0.000450883
47 *1237:D *199:34 0
48 *1286:A *199:101 0
49 *105:10 *199:34 8.02226e-05
50 *105:22 *1215:CLK 0.000142745
51 *105:22 *199:61 0.000118882
52 *105:113 *199:24 0.000120004
53 *105:113 *199:34 0.000178222
54 *174:41 *199:24 0
55 *174:41 *199:34 0
56 *185:22 *199:14 5.33005e-05
57 *185:22 *199:24 3.01159e-05
58 *185:26 *199:24 0.000147256
59 *190:8 *199:24 0.000525753
*RES
1 *1239:X *199:14 24.8 
2 *199:14 *199:24 17.9643 
3 *199:24 *199:34 18.1964 
4 *199:34 *199:44 15.6607 
5 *199:44 *1215:CLK 19.1929 
6 *199:44 *199:61 17.3036 
7 *199:61 *1205:CLK 9.3 
8 *199:61 *199:68 1.35714 
9 *199:68 *1213:CLK 9.3 
10 *199:68 *1212:CLK 20.55 
11 *199:34 *1237:CLK 9.3 
12 *199:24 *199:95 10.3929 
13 *199:95 *199:101 12.4464 
14 *199:101 *1235:CLK 13.8 
15 *199:101 *199:112 14.0357 
16 *199:112 *1216:CLK 9.3 
17 *199:112 *1230:CLK 29.9607 
18 *199:95 *1236:CLK 9.3 
19 *199:14 *1234:CLK 9.3 
*END

*D_NET *200 0.0168101
*CONN
*I *1201:CLK I *D sky130_fd_sc_hd__dfxtp_1
*I *1227:CLK I *D sky130_fd_sc_hd__dfxtp_1
*I *1226:CLK I *D sky130_fd_sc_hd__dfxtp_1
*I *1225:CLK I *D sky130_fd_sc_hd__dfxtp_1
*I *1210:CLK I *D sky130_fd_sc_hd__dfxtp_1
*I *1209:CLK I *D sky130_fd_sc_hd__dfxtp_1
*I *1200:CLK I *D sky130_fd_sc_hd__dfxtp_1
*I *1232:CLK I *D sky130_fd_sc_hd__dfxtp_1
*I *1217:CLK I *D sky130_fd_sc_hd__dfxtp_1
*I *1223:CLK I *D sky130_fd_sc_hd__dfxtp_1
*I *1224:CLK I *D sky130_fd_sc_hd__dfxtp_1
*I *1222:CLK I *D sky130_fd_sc_hd__dfxtp_1
*I *1231:CLK I *D sky130_fd_sc_hd__dfxtp_1
*I *1240:X O *D sky130_fd_sc_hd__clkbuf_16
*CAP
1 *1201:CLK 0.000324581
2 *1227:CLK 8.24936e-05
3 *1226:CLK 0
4 *1225:CLK 0.000454622
5 *1210:CLK 0
6 *1209:CLK 7.05947e-05
7 *1200:CLK 0.000418996
8 *1232:CLK 0
9 *1217:CLK 0
10 *1223:CLK 0
11 *1224:CLK 0.000230812
12 *1222:CLK 2.69356e-05
13 *1231:CLK 0.000293891
14 *1240:X 0.000357264
15 *200:129 0.000796238
16 *200:123 0.0010987
17 *200:112 0.00119251
18 *200:101 0.000809721
19 *200:87 0.000616004
20 *200:81 0.000418211
21 *200:79 0.000956575
22 *200:50 0.000866064
23 *200:33 0.00124191
24 *200:25 0.000995032
25 *200:21 0.00121883
26 *200:8 0.000822683
27 *1200:CLK *1168:B1 0.0001871
28 *1200:CLK *267:6 0.000120737
29 *1224:CLK *1304:A 0.000207499
30 *1227:CLK *283:8 0.000123673
31 *200:8 *1165:B2 0
32 *200:8 *266:12 0
33 *200:21 *1115:A0 2.56694e-05
34 *200:25 *1267:A 8.57023e-05
35 *200:25 *209:8 0.00010096
36 *200:50 *1223:D 0.000453825
37 *200:50 *280:6 0.000124595
38 *200:79 *209:16 6.4474e-05
39 *200:87 *1168:B1 2.89114e-05
40 *200:112 *1104:A1 0
41 *200:123 *1147:A1 0.000151333
42 *200:123 *283:14 0
43 *200:129 *283:8 6.05161e-06
44 *1035:A *200:112 0
45 *1115:A1 *1231:CLK 5.7661e-06
46 *1115:S *1231:CLK 9.851e-05
47 *1132:A *200:33 3.85645e-05
48 *1145:A2 *200:123 0
49 *1150:A *200:123 6.97972e-05
50 *1209:D *1209:CLK 0.000185403
51 *1209:D *200:101 1.46689e-05
52 *1209:D *200:112 6.4474e-05
53 *1217:D *200:25 0.000128755
54 *1222:D *1222:CLK 2.7933e-05
55 *1225:D *1225:CLK 0.000128755
56 *1226:D *200:129 0.000278574
57 *1227:D *1227:CLK 2.89016e-05
58 *1231:D *1231:CLK 4.87669e-06
59 *1231:D *200:8 0
60 *1231:D *200:21 0
61 *1232:D *1200:CLK 8.42801e-05
62 *1276:A *200:112 0
63 *1281:A *200:50 0.00015166
64 *86:12 *200:112 0
65 *153:10 *200:123 0
66 *158:10 *200:123 0
67 *164:12 *200:123 0.000526011
*RES
1 *1240:X *200:8 19.6929 
2 *200:8 *1231:CLK 17.9429 
3 *200:8 *200:21 3.16071 
4 *200:21 *200:25 12.4286 
5 *200:25 *200:33 15 
6 *200:33 *1222:CLK 14.3357 
7 *200:33 *200:50 18.25 
8 *200:50 *1224:CLK 23.5143 
9 *200:50 *1223:CLK 9.3 
10 *200:25 *1217:CLK 9.3 
11 *200:21 *200:79 12.7321 
12 *200:79 *200:81 4.5 
13 *200:81 *200:87 7.80357 
14 *200:87 *1232:CLK 9.3 
15 *200:87 *1200:CLK 18.4607 
16 *200:81 *200:101 3.46429 
17 *200:101 *1209:CLK 15.5679 
18 *200:101 *200:112 9.83929 
19 *200:112 *1210:CLK 13.8 
20 *200:112 *200:123 19.1964 
21 *200:123 *200:129 6.83929 
22 *200:129 *1225:CLK 17.2286 
23 *200:129 *1226:CLK 9.3 
24 *200:123 *1227:CLK 11.4786 
25 *200:79 *1201:CLK 14.675 
*END

*D_NET *201 0.0167595
*CONN
*I *1202:CLK I *D sky130_fd_sc_hd__dfxtp_1
*I *1193:CLK I *D sky130_fd_sc_hd__dfxtp_1
*I *1192:CLK I *D sky130_fd_sc_hd__dfxtp_1
*I *1219:CLK I *D sky130_fd_sc_hd__dfxtp_1
*I *1191:CLK I *D sky130_fd_sc_hd__dfxtp_1
*I *1218:CLK I *D sky130_fd_sc_hd__dfxtp_1
*I *1233:CLK I *D sky130_fd_sc_hd__dfxtp_1
*I *1203:CLK I *D sky130_fd_sc_hd__dfxtp_1
*I *1214:CLK I *D sky130_fd_sc_hd__dfxtp_1
*I *1220:CLK I *D sky130_fd_sc_hd__dfxtp_1
*I *1204:CLK I *D sky130_fd_sc_hd__dfxtp_1
*I *1221:CLK I *D sky130_fd_sc_hd__dfxtp_1
*I *1211:CLK I *D sky130_fd_sc_hd__dfxtp_2
*I *1241:X O *D sky130_fd_sc_hd__clkbuf_16
*CAP
1 *1202:CLK 0
2 *1193:CLK 0
3 *1192:CLK 0.000601485
4 *1219:CLK 0.000417072
5 *1191:CLK 1.99857e-05
6 *1218:CLK 0.000454122
7 *1233:CLK 0.000149819
8 *1203:CLK 4.07447e-05
9 *1214:CLK 0.000479703
10 *1220:CLK 0
11 *1204:CLK 0
12 *1221:CLK 0.00025109
13 *1211:CLK 0.000181045
14 *1241:X 8.0707e-05
15 *201:139 0.00103074
16 *201:130 0.000641147
17 *201:114 0.000886023
18 *201:101 0.000842266
19 *201:88 0.000470047
20 *201:84 0.000487145
21 *201:65 0.000495122
22 *201:43 0.000916917
23 *201:16 0.000965608
24 *201:12 0.000831086
25 *201:10 0.00114307
26 *201:8 0.000665315
27 *1192:CLK *1098:A0 0.000106391
28 *1192:CLK *1099:A0 0.000186669
29 *1192:CLK *293:8 0.000139482
30 *1218:CLK *210:8 1.33343e-05
31 *1219:CLK *1264:A 8.49898e-05
32 *1233:CLK *1118:A1 4.84073e-05
33 *201:8 *225:12 1.05947e-05
34 *201:10 *204:12 0
35 *201:12 *204:12 0
36 *201:16 *204:12 0
37 *201:43 *273:30 0.000168929
38 *201:43 *275:14 0.000393285
39 *201:43 *275:18 0.000442566
40 *201:65 *204:12 0
41 *201:101 *1275:A 6.39158e-05
42 *201:114 *210:8 4.70078e-05
43 *201:130 *1099:A0 8.66063e-05
44 *201:130 *204:12 2.46649e-05
45 *201:130 *295:6 0.000186662
46 *201:139 *1099:A0 5.52238e-05
47 *1038:B *201:43 2.62194e-05
48 *1043:A1 *201:43 0.000186771
49 *1043:A2 *201:43 5.12625e-05
50 *1112:S *1218:CLK 9.60875e-05
51 *1118:A0 *1233:CLK 0.000225374
52 *1118:S *201:88 0.000386472
53 *1118:S *201:101 2.37713e-05
54 *1119:A *1233:CLK 1.84776e-05
55 *1121:A0 *1214:CLK 0.000221163
56 *1124:S *1214:CLK 0
57 *1191:D *1191:CLK 1.04232e-05
58 *1191:D *1192:CLK 7.70818e-05
59 *1191:D *201:130 3.18676e-05
60 *1191:D *201:139 2.78509e-05
61 *1192:D *1192:CLK 0.000108557
62 *1193:D *201:114 5.49489e-05
63 *1193:D *201:130 2.5722e-05
64 *1202:D *201:84 0.000124795
65 *1203:D *1203:CLK 9.84729e-05
66 *1203:D *201:10 0
67 *1203:D *201:65 0
68 *1218:D *1218:CLK 8.52807e-05
69 *1220:D *1214:CLK 5.33005e-05
70 *1220:D *201:43 2.28499e-05
71 *88:14 *201:10 5.10822e-05
72 *89:8 *201:43 6.42095e-05
73 *94:27 *201:43 6.42095e-05
74 *105:71 *1214:CLK 9.96553e-05
75 *105:84 *1214:CLK 0.000414551
76 *124:14 *201:10 0
77 *124:14 *201:12 0
78 *124:32 *201:10 0
79 *142:10 *201:101 0
*RES
1 *1241:X *201:8 14.7464 
2 *201:8 *201:10 6.80357 
3 *201:10 *201:12 4.98214 
4 *201:12 *201:16 14.0357 
5 *201:16 *1211:CLK 12.3 
6 *201:16 *1221:CLK 13.1214 
7 *201:12 *1204:CLK 13.8 
8 *201:10 *201:43 16.9643 
9 *201:43 *1220:CLK 9.3 
10 *201:43 *1214:CLK 29.6214 
11 *201:8 *201:65 3.16071 
12 *201:65 *1203:CLK 14.7464 
13 *201:65 *201:84 9.48214 
14 *201:84 *201:88 9.48214 
15 *201:88 *1233:CLK 17.2107 
16 *201:88 *201:101 7.05357 
17 *201:101 *1218:CLK 16.7464 
18 *201:101 *201:114 4.64286 
19 *201:114 *201:130 19.5893 
20 *201:130 *1191:CLK 9.72857 
21 *201:130 *201:139 0.535714 
22 *201:139 *1219:CLK 26.0143 
23 *201:139 *1192:CLK 21.3536 
24 *201:114 *1193:CLK 9.3 
25 *201:84 *1202:CLK 9.3 
*END

*D_NET *202 0.0145702
*CONN
*I *1199:CLK I *D sky130_fd_sc_hd__dfxtp_2
*I *1228:CLK I *D sky130_fd_sc_hd__dfxtp_1
*I *1229:CLK I *D sky130_fd_sc_hd__dfxtp_1
*I *1196:CLK I *D sky130_fd_sc_hd__dfxtp_1
*I *1195:CLK I *D sky130_fd_sc_hd__dfxtp_1
*I *1194:CLK I *D sky130_fd_sc_hd__dfxtp_1
*I *1197:CLK I *D sky130_fd_sc_hd__dfxtp_1
*I *1206:CLK I *D sky130_fd_sc_hd__dfxtp_1
*I *1208:CLK I *D sky130_fd_sc_hd__dfxtp_1
*I *1207:CLK I *D sky130_fd_sc_hd__dfxtp_1
*I *1198:CLK I *D sky130_fd_sc_hd__dfxtp_1
*I *1242:X O *D sky130_fd_sc_hd__clkbuf_16
*CAP
1 *1199:CLK 0
2 *1228:CLK 0.000526681
3 *1229:CLK 0.000149491
4 *1196:CLK 3.72884e-05
5 *1195:CLK 3.70921e-05
6 *1194:CLK 0.000382969
7 *1197:CLK 0.000484635
8 *1206:CLK 0
9 *1208:CLK 0
10 *1207:CLK 0.000177084
11 *1198:CLK 0.000223966
12 *1242:X 0
13 *202:116 0.00105341
14 *202:105 0.000639826
15 *202:101 0.000526404
16 *202:77 0.00124216
17 *202:51 0.000557281
18 *202:47 0.00145027
19 *202:43 0.00125029
20 *202:32 0.000887747
21 *202:10 0.000611948
22 *202:6 0.000704988
23 *1197:CLK *1077:A0 0.000251215
24 *1197:CLK *1099:A2 0
25 *1197:CLK *299:10 0
26 *1207:CLK *300:10 2.1768e-05
27 *1228:CLK *263:12 0
28 *202:10 *1079:A1 0.000148388
29 *202:32 *218:12 9.99853e-05
30 *202:43 *1098:A3 0
31 *202:43 *218:12 1.61135e-05
32 *202:51 *1099:A2 0
33 *202:77 *1091:A1 0.000402509
34 *202:101 *1098:A3 0
35 *1076:A *202:105 0
36 *1076:A *202:116 0
37 *1077:S *1197:CLK 0.000225307
38 *1090:A1 *202:77 1.34631e-05
39 *1090:A2 *202:77 7.48301e-06
40 *1194:D *1194:CLK 7.89362e-05
41 *1195:D *1194:CLK 4.46186e-06
42 *1195:D *202:77 8.16036e-05
43 *1196:D *202:105 4.46186e-06
44 *1196:D *202:116 8.16036e-05
45 *1197:D *1197:CLK 0.000124795
46 *1198:D *1198:CLK 0.00012908
47 *1206:D *202:51 0.00010326
48 *1208:D *202:43 0.000133463
49 *1229:D *1229:CLK 0.000102589
50 *1229:D *202:116 0.00014925
51 *1238:A *202:10 0
52 *1293:A *202:32 9.61602e-05
53 *77:10 *202:105 0.000170767
54 *77:40 *202:47 0.000884732
55 *77:40 *202:77 0.000213179
56 *79:12 *202:32 8.20629e-05
57 *126:12 *202:43 0
58 *126:14 *202:43 0
*RES
1 *1242:X *202:6 13.8 
2 *202:6 *202:10 8.875 
3 *202:10 *1198:CLK 13.1214 
4 *202:10 *1207:CLK 12.3 
5 *202:6 *202:32 13.9643 
6 *202:32 *1208:CLK 9.3 
7 *202:32 *202:43 10.625 
8 *202:43 *202:47 12.8393 
9 *202:47 *202:51 6.14286 
10 *202:51 *1206:CLK 13.8 
11 *202:51 *1197:CLK 24.425 
12 *202:47 *202:77 16.7143 
13 *202:77 *1194:CLK 20.9071 
14 *202:77 *1195:CLK 14.3357 
15 *202:43 *202:101 9.14286 
16 *202:101 *202:105 9.48214 
17 *202:105 *1196:CLK 14.3357 
18 *202:105 *202:116 8.01786 
19 *202:116 *1229:CLK 16.4071 
20 *202:116 *1228:CLK 22.4429 
21 *202:101 *1199:CLK 9.3 
*END

*D_NET *203 0.00906618
*CONN
*I *1053:S I *D sky130_fd_sc_hd__mux2_1
*I *1282:X O *D sky130_fd_sc_hd__buf_1
*CAP
1 *1053:S 0
2 *1282:X 0.000160585
3 *203:10 0.00198469
4 *203:8 0.00214527
5 *203:10 *1053:A0 1.41706e-05
6 *203:10 *1053:A1 0.00231143
7 *203:10 *1304:A 0.00173765
8 *105:113 *203:10 0
9 *199:101 *203:10 0.0003116
10 *199:112 *203:10 0.000400778
*RES
1 *1282:X *203:8 15.5679 
2 *203:8 *203:10 59.3214 
3 *203:10 *1053:S 13.8 
*END

*D_NET *204 0.0062291
*CONN
*I *1079:A0 I *D sky130_fd_sc_hd__mux2_1
*I *1283:X O *D sky130_fd_sc_hd__clkbuf_1
*CAP
1 *1079:A0 0
2 *1283:X 0.000384094
3 *204:12 0.0023077
4 *204:8 0.00269179
5 *204:8 *247:10 0.000626714
6 *204:12 *1039:A 0
7 *204:12 *1085:B2 0
8 *204:12 *1275:A 0
9 *204:12 *210:31 0
10 *204:12 *273:12 0
11 *204:12 *273:30 4.35141e-05
12 *1044:B *204:12 0
13 *1070:A *204:12 0.000150625
14 *1127:A *204:12 0
15 *1221:D *204:12 0
16 *1238:A *204:12 0
17 *80:61 *204:12 0
18 *87:8 *204:12 0
19 *88:36 *204:12 0
20 *201:10 *204:12 0
21 *201:12 *204:12 0
22 *201:16 *204:12 0
23 *201:65 *204:12 0
24 *201:130 *204:12 2.46649e-05
*RES
1 *1283:X *204:8 19.675 
2 *204:8 *204:12 45.3036 
3 *204:12 *1079:A0 9.3 
*END

*D_NET *205 0.0015558
*CONN
*I *1026:A I *D sky130_fd_sc_hd__nand2_4
*I *1284:X O *D sky130_fd_sc_hd__buf_1
*CAP
1 *1026:A 0.000530222
2 *1284:X 0.000530222
3 *1026:A *211:25 0.000495352
*RES
1 *1284:X *1026:A 40.2071 
*END

*D_NET *206 0.00252449
*CONN
*I *1266:A I *D sky130_fd_sc_hd__dlygate4sd3_1
*I *1294:A I *D sky130_fd_sc_hd__clkbuf_4
*I *1214:Q O *D sky130_fd_sc_hd__dfxtp_1
*CAP
1 *1266:A 0.000166834
2 *1294:A 0.00100651
3 *1214:Q 0
4 *206:6 0.00117334
5 rx_data[0] *1294:A 3.30352e-05
6 *1287:A *1294:A 0.000144773
*RES
1 *1214:Q *206:6 13.8 
2 *206:6 *1294:A 31.5321 
3 *206:6 *1266:A 16.9607 
*END

*D_NET *207 0.00191099
*CONN
*I *1248:A I *D sky130_fd_sc_hd__dlygate4sd3_1
*I *1295:A I *D sky130_fd_sc_hd__clkbuf_4
*I *1215:Q O *D sky130_fd_sc_hd__dfxtp_1
*CAP
1 *1248:A 0.000245244
2 *1295:A 0.000509124
3 *1215:Q 0
4 *207:4 0.000754368
5 *1295:A *1243:A 4.46186e-06
6 *105:22 *1248:A 0.00027206
7 *199:44 *1248:A 0.000125736
8 *199:44 *1295:A 0
*RES
1 *1215:Q *207:4 9.3 
2 *207:4 *1295:A 26.8179 
3 *207:4 *1248:A 22.5321 
*END

*D_NET *208 0.00164953
*CONN
*I *1250:A I *D sky130_fd_sc_hd__dlygate4sd3_1
*I *1296:A I *D sky130_fd_sc_hd__clkbuf_4
*I *1216:Q O *D sky130_fd_sc_hd__dfxtp_1
*CAP
1 *1250:A 0.000130414
2 *1296:A 0.000355686
3 *1216:Q 8.8536e-05
4 *208:8 0.000574636
5 *1296:A *1112:A1 0.000307822
6 *1112:A0 *1296:A 1.40306e-05
7 *1112:S *1296:A 7.32955e-05
8 *1230:CLK *1296:A 8.18471e-05
9 *105:126 *1296:A 2.32625e-05
*RES
1 *1216:Q *208:8 10.675 
2 *208:8 *1296:A 26.0143 
3 *208:8 *1250:A 11.4786 
*END

*D_NET *209 0.00546836
*CONN
*I *1267:A I *D sky130_fd_sc_hd__dlygate4sd3_1
*I *1297:A I *D sky130_fd_sc_hd__clkbuf_4
*I *1217:Q O *D sky130_fd_sc_hd__dfxtp_1
*CAP
1 *1267:A 0.000117449
2 *1297:A 0
3 *1217:Q 5.87293e-05
4 *209:16 0.00172432
5 *209:8 0.0019005
6 *209:16 *1131:S 0.00027116
7 *209:16 *1134:B 0.000125724
8 *209:16 *1137:B 0
9 *209:16 *279:21 0.000141375
10 *209:16 *279:49 0.000550731
11 *209:16 *282:8 7.38656e-05
12 *209:16 *282:10 9.95262e-05
13 *209:16 *282:16 0.000126899
14 *1135:A3 *209:16 2.6949e-05
15 *1142:B2 *209:16 0
16 *83:37 *209:16 0
17 *83:48 *209:16 0
18 *153:25 *209:16 0
19 *200:25 *1267:A 8.57023e-05
20 *200:25 *209:8 0.00010096
21 *200:79 *209:16 6.4474e-05
*RES
1 *1217:Q *209:8 10.675 
2 *209:8 *209:16 45.3393 
3 *209:16 *1297:A 9.3 
4 *209:8 *1267:A 11.4786 
*END

*D_NET *210 0.00850078
*CONN
*I *1298:A I *D sky130_fd_sc_hd__clkbuf_4
*I *1275:A I *D sky130_fd_sc_hd__dlygate4sd3_1
*I *1218:Q O *D sky130_fd_sc_hd__dfxtp_1
*CAP
1 *1298:A 0.000864187
2 *1275:A 0.000289018
3 *1218:Q 0.000101993
4 *210:31 0.00251823
5 *210:8 0.00204505
6 *1298:A *229:10 6.70624e-05
7 *210:31 *286:21 0.000430996
8 *210:31 *290:10 0
9 *210:31 *290:12 0
10 *210:31 *290:14 0
11 *1023:D *210:31 0
12 *1070:A *1275:A 7.25873e-06
13 *1080:A *210:31 0
14 *1155:B *210:31 0
15 *1156:A0 *210:31 8.08608e-06
16 *1157:A *210:31 0.00015244
17 *1218:CLK *210:8 1.33343e-05
18 *1228:D *210:31 0
19 *1238:A *210:31 0.000106299
20 *1242:A *210:31 0
21 *1291:A *1298:A 2.89114e-05
22 *1291:A *210:31 2.94103e-05
23 *73:18 *210:31 7.90803e-05
24 *74:14 *210:31 0
25 *79:12 *210:31 0.000121488
26 *80:42 *210:31 0.000360568
27 *80:48 *210:31 0.00116645
28 *142:10 *1275:A 0
29 *142:10 *210:31 0
30 *201:101 *1275:A 6.39158e-05
31 *201:114 *210:8 4.70078e-05
32 *204:12 *1275:A 0
33 *204:12 *210:31 0
*RES
1 *1218:Q *210:8 15.1571 
2 *210:8 *1275:A 19.1393 
3 *210:8 *210:31 44.5 
4 *210:31 *1298:A 22.9964 
*END

*D_NET *211 0.00997699
*CONN
*I *1299:A I *D sky130_fd_sc_hd__clkbuf_4
*I *1121:A1 I *D sky130_fd_sc_hd__mux2_1
*I *1219:Q O *D sky130_fd_sc_hd__dfxtp_1
*CAP
1 *1299:A 0
2 *1121:A1 0.000659434
3 *1219:Q 0
4 *211:25 0.00173946
5 *211:23 0.00281884
6 *211:4 0.00173881
7 *1121:A1 *1065:A0 0.000195856
8 *211:25 *1073:A0 0
9 *211:25 *1098:A1 0.000183431
10 *211:25 *1098:A2 0.000199782
11 *211:25 *1252:A 0.000438272
12 *211:25 *1255:A 0.000139241
13 rx_data[5] *211:25 0
14 *1026:A *211:25 0.000495352
15 *1219:D *1121:A1 1.90303e-05
16 *1290:A *211:25 0
17 *80:10 *211:25 0.000200143
18 *80:21 *211:25 0.000939056
19 *80:34 *211:25 0.000210291
*RES
1 *1219:Q *211:4 9.3 
2 *211:4 *1121:A1 27.2643 
3 *211:4 *211:23 16.9464 
4 *211:23 *211:25 45.6607 
5 *211:25 *1299:A 13.8 
*END

*D_NET *212 0.00214547
*CONN
*I *1300:A I *D sky130_fd_sc_hd__buf_2
*I *1260:A I *D sky130_fd_sc_hd__dlygate4sd3_1
*I *1220:Q O *D sky130_fd_sc_hd__dfxtp_1
*CAP
1 *1300:A 0.000828526
2 *1260:A 0
3 *1220:Q 0.000244208
4 *212:8 0.00107273
5 *1300:A *236:8 0
*RES
1 *1220:Q *212:8 13.1393 
2 *212:8 *1260:A 9.3 
3 *212:8 *1300:A 32.1393 
*END

*D_NET *213 0.00130399
*CONN
*I *1249:A I *D sky130_fd_sc_hd__dlygate4sd3_1
*I *1301:A I *D sky130_fd_sc_hd__clkbuf_4
*I *1221:Q O *D sky130_fd_sc_hd__dfxtp_1
*CAP
1 *1249:A 0.000224166
2 *1301:A 0.000280468
3 *1221:Q 0.000120688
4 *213:8 0.000625322
5 *1249:A *247:16 0
6 *1301:A *247:16 0
7 rx_data[7] *1301:A 5.33433e-05
*RES
1 *1221:Q *213:8 15.1571 
2 *213:8 *1301:A 19.0321 
3 *213:8 *1249:A 17.8714 
*END

*D_NET *214 0.00215486
*CONN
*I *1053:A0 I *D sky130_fd_sc_hd__mux2_1
*I *1285:X O *D sky130_fd_sc_hd__clkbuf_1
*CAP
1 *1053:A0 0.00101945
2 *1285:X 0.00101945
3 *1215:D *1053:A0 0.000101777
4 *105:10 *1053:A0 0
5 *105:113 *1053:A0 0
6 *203:10 *1053:A0 1.41706e-05
*RES
1 *1285:X *1053:A0 45.475 
*END

*D_NET *215 0.00126149
*CONN
*I *1243:A I *D sky130_fd_sc_hd__dlygate4sd3_1
*I *1302:A I *D sky130_fd_sc_hd__clkbuf_4
*I *1205:Q O *D sky130_fd_sc_hd__dfxtp_1
*CAP
1 *1243:A 0.000305036
2 *1302:A 0.00032348
3 *1205:Q 0
4 *215:6 0.000628516
5 *1295:A *1243:A 4.46186e-06
*RES
1 *1205:Q *215:6 13.8 
2 *215:6 *1302:A 19.4429 
3 *215:6 *1243:A 18.8536 
*END

*D_NET *216 0.00313197
*CONN
*I *1265:A I *D sky130_fd_sc_hd__dlygate4sd3_1
*I *1303:A I *D sky130_fd_sc_hd__clkbuf_4
*I *1210:Q O *D sky130_fd_sc_hd__dfxtp_1
*CAP
1 *1265:A 0.00024418
2 *1303:A 0.00108496
3 *1210:Q 6.32027e-05
4 *216:10 0.00139234
5 *1265:A *279:27 1.04232e-05
6 *1303:A *1133:A 8.07313e-05
7 *1303:A *279:27 9.76491e-05
8 *216:10 *279:49 0.000103267
9 *1135:A2 *1303:A 5.52238e-05
*RES
1 *1210:Q *216:10 19.6393 
2 *216:10 *1303:A 26.2643 
3 *216:10 *1265:A 13.55 
*END

*D_NET *217 0.0126149
*CONN
*I *1261:A I *D sky130_fd_sc_hd__dlygate4sd3_1
*I *1304:A I *D sky130_fd_sc_hd__clkbuf_4
*I *1053:A1 I *D sky130_fd_sc_hd__mux2_1
*I *1209:Q O *D sky130_fd_sc_hd__dfxtp_1
*CAP
1 *1261:A 0.000631615
2 *1304:A 0.00098949
3 *1053:A1 0.0010716
4 *1209:Q 0
5 *217:8 0.00341664
6 *217:4 0.00198716
7 *1113:A *1053:A1 6.2993e-05
8 *1209:D *1261:A 2.33386e-05
9 *1216:D *1053:A1 0.000175519
10 *1224:CLK *1304:A 0.000207499
11 *1282:A *1304:A 0
12 *105:113 *1053:A1 0
13 *203:10 *1053:A1 0.00231143
14 *203:10 *1304:A 0.00173765
*RES
1 *1209:Q *217:4 9.3 
2 *217:4 *217:8 20.2321 
3 *217:8 *1053:A1 44.6393 
4 *217:8 *1304:A 42.2107 
5 *217:4 *1261:A 26.925 
*END

*D_NET *218 0.00446194
*CONN
*I *1092:B1 I *D sky130_fd_sc_hd__a21oi_1
*I *1026:B I *D sky130_fd_sc_hd__nand2_4
*I *1293:X O *D sky130_fd_sc_hd__clkbuf_2
*CAP
1 *1092:B1 0
2 *1026:B 0.00100485
3 *1293:X 0.000762468
4 *218:12 0.00176732
5 *1026:B *1098:A0 0
6 *1026:B *1100:S 0.000197918
7 *218:12 *288:25 1.95287e-05
8 *218:12 *288:49 8.14359e-05
9 *1092:A2 *1026:B 0.000100516
10 *1093:B1 *1026:B 1.32293e-05
11 *1208:D *218:12 1.93817e-05
12 *133:14 *1026:B 0.000379198
13 *202:32 *218:12 9.99853e-05
14 *202:43 *218:12 1.61135e-05
*RES
1 *1293:X *218:12 29.0679 
2 *218:12 *1026:B 37.4607 
3 *218:12 *1092:B1 9.3 
*END

*D_NET *219 0.0011716
*CONN
*I *1089:B1 I *D sky130_fd_sc_hd__o22a_1
*I *1243:X O *D sky130_fd_sc_hd__dlygate4sd3_1
*CAP
1 *1089:B1 0.0005858
2 *1243:X 0.0005858
3 *1089:B1 *1089:A1 0
4 *1089:B2 *1089:B1 0
5 *69:10 *1089:B1 0
6 *199:61 *1089:B1 0
*RES
1 *1243:X *1089:B1 35.5107 
*END

*D_NET *220 0.000367625
*CONN
*I *1205:D I *D sky130_fd_sc_hd__dfxtp_1
*I *1254:X O *D sky130_fd_sc_hd__dlygate4sd3_1
*CAP
1 *1205:D 0.000182619
2 *1254:X 0.000182619
3 *199:61 *1205:D 2.38651e-06
*RES
1 *1254:X *1205:D 30.2473 
*END

*D_NET *221 0.00017414
*CONN
*I *1104:B1 I *D sky130_fd_sc_hd__o22a_1
*I *1265:X O *D sky130_fd_sc_hd__dlygate4sd3_1
*CAP
1 *1104:B1 5.89205e-05
2 *1265:X 5.89205e-05
3 *1276:A *1104:B1 5.62995e-05
*RES
1 *1265:X *1104:B1 19.9571 
*END

*D_NET *222 0.00022748
*CONN
*I *1210:D I *D sky130_fd_sc_hd__dfxtp_1
*I *1276:X O *D sky130_fd_sc_hd__dlygate4sd3_1
*CAP
1 *1210:D 0.00011374
2 *1276:X 0.00011374
*RES
1 *1276:X *1210:D 20.2295 
*END

*D_NET *223 0.000587573
*CONN
*I *1147:A1 I *D sky130_fd_sc_hd__a21o_1
*I *1277:X O *D sky130_fd_sc_hd__dlygate4sd3_1
*CAP
1 *1147:A1 0.000214491
2 *1277:X 0.000214491
3 *1147:A1 *1277:A 0
4 *1147:A1 *283:14 0
5 *1147:A2 *1147:A1 7.25873e-06
6 *1226:D *1147:A1 0
7 *200:123 *1147:A1 0.000151333
*RES
1 *1277:X *1147:A1 31.6 
*END

*D_NET *224 0.00118568
*CONN
*I *1136:B1 I *D sky130_fd_sc_hd__a21o_1
*I *1139:B1 I *D sky130_fd_sc_hd__a32o_1
*I *1278:X O *D sky130_fd_sc_hd__dlygate4sd3_1
*CAP
1 *1136:B1 0.000349313
2 *1139:B1 6.56664e-05
3 *1278:X 0
4 *224:4 0.00041498
5 *1136:B1 *1137:C 0.000125336
6 *1136:B1 *281:12 6.05148e-05
7 *1139:B1 *281:12 1.89967e-05
8 *1139:A3 *1139:B1 7.41811e-05
9 *1139:B2 *1136:B1 2.14658e-05
10 *1139:B2 *1139:B1 5.52302e-05
*RES
1 *1278:X *224:4 9.3 
2 *224:4 *1139:B1 10.8804 
3 *224:4 *1136:B1 14.2643 
*END

*D_NET *225 0.0119305
*CONN
*I *1065:A0 I *D sky130_fd_sc_hd__mux2_1
*I *1286:X O *D sky130_fd_sc_hd__buf_1
*CAP
1 *1065:A0 0.001146
2 *1286:X 0.00038852
3 *225:12 0.00465379
4 *225:8 0.00389631
5 *225:12 *1173:B 0.000348207
6 *225:12 *1185:A1 7.5924e-06
7 *225:12 *268:43 0.000225982
8 *225:12 *271:30 0.000257459
9 *1121:A0 *1065:A0 0
10 *1121:A1 *1065:A0 0.000195856
11 *1182:A *225:12 1.83053e-05
12 *1182:B *225:12 3.42509e-05
13 *1219:D *1065:A0 0.000101771
14 *198:14 *225:12 0.000448873
15 *199:14 *225:12 0.000196968
16 *201:8 *225:12 1.05947e-05
*RES
1 *1286:X *225:8 14.9875 
2 *225:8 *225:12 43.6786 
3 *225:12 *1065:A0 36.7018 
*END

*D_NET *226 0.00132161
*CONN
*I *1178:B2 I *D sky130_fd_sc_hd__o22a_1
*I *1279:X O *D sky130_fd_sc_hd__dlygate4sd3_1
*CAP
1 *1178:B2 0.00019965
2 *1279:X 0.00019965
3 *1178:B2 *1279:A 7.89362e-05
4 *1178:B2 *270:27 9.71197e-05
5 *1165:A2 *1178:B2 0.00026149
6 *1178:B1 *1178:B2 9.90431e-05
7 *174:81 *1178:B2 9.25014e-06
8 *174:94 *1178:B2 0.000376471
*RES
1 *1279:X *1178:B2 35.0464 
*END

*D_NET *227 0.00113753
*CONN
*I *1134:B I *D sky130_fd_sc_hd__nand2_1
*I *1135:B1 I *D sky130_fd_sc_hd__a32o_1
*I *1280:X O *D sky130_fd_sc_hd__dlygate4sd3_1
*CAP
1 *1134:B 0.000289232
2 *1135:B1 5.50284e-05
3 *1280:X 0
4 *227:4 0.00034426
5 *1134:B *1133:B 1.69115e-05
6 *1134:B *280:19 1.15281e-05
7 *1134:B *280:32 9.99644e-06
8 *1135:A2 *1135:B1 7.71303e-05
9 *1135:A3 *1134:B 0.000115845
10 *1135:A3 *1135:B1 3.66478e-05
11 *1135:B2 *1135:B1 5.52238e-05
12 *209:16 *1134:B 0.000125724
*RES
1 *1280:X *227:4 9.3 
2 *227:4 *1135:B1 10.8804 
3 *227:4 *1134:B 22.9429 
*END

*D_NET *228 0.00100602
*CONN
*I *1223:D I *D sky130_fd_sc_hd__dfxtp_1
*I *1281:X O *D sky130_fd_sc_hd__dlygate4sd3_1
*CAP
1 *1223:D 0.000276099
2 *1281:X 0.000276099
3 *1281:A *1223:D 0
4 *200:50 *1223:D 0.000453825
*RES
1 *1281:X *1223:D 33.2116 
*END

*D_NET *229 0.00276594
*CONN
*I *1154:A1 I *D sky130_fd_sc_hd__a21o_1
*I *1020:A I *D sky130_fd_sc_hd__nand3_2
*I *1244:X O *D sky130_fd_sc_hd__dlygate4sd3_1
*CAP
1 *1154:A1 0
2 *1020:A 0.000426671
3 *1244:X 0.000301595
4 *229:10 0.000728265
5 *1020:A *1023:A 0.000343747
6 *1020:A *285:10 0.000386479
7 *229:10 *1244:A 0.000202842
8 *229:10 *285:10 0.00011496
9 *1155:B *1020:A 0
10 *1228:D *229:10 5.33882e-05
11 *1298:A *229:10 6.70624e-05
12 *74:14 *1020:A 5.52302e-05
13 *153:90 *1020:A 0
14 *169:10 *1020:A 8.01554e-05
15 *169:10 *229:10 5.54817e-06
*RES
1 *1244:X *229:10 20.05 
2 *229:10 *1020:A 24.5143 
3 *229:10 *1154:A1 13.8 
*END

*D_NET *230 0.00101851
*CONN
*I *1094:B1 I *D sky130_fd_sc_hd__a21oi_1
*I *1245:X O *D sky130_fd_sc_hd__dlygate4sd3_1
*CAP
1 *1094:B1 6.41425e-05
2 *1245:X 6.41425e-05
3 *1094:B1 *1024:C 4.27935e-05
4 *1094:B1 *1094:A1 0.00040381
5 *78:10 *1094:B1 0.000443618
*RES
1 *1245:X *1094:B1 22.8321 
*END

*D_NET *231 0.000760927
*CONN
*I *1097:A I *D sky130_fd_sc_hd__nor2_1
*I *1246:X O *D sky130_fd_sc_hd__dlygate4sd3_1
*CAP
1 *1097:A 0.000109677
2 *1246:X 0.000109677
3 *1097:A *1094:A1 0.000185643
4 *1090:A1 *1097:A 0.00017216
5 *1246:A *1097:A 9.90431e-05
6 *78:10 *1097:A 8.47277e-05
*RES
1 *1246:X *1097:A 22.85 
*END

*D_NET *232 0.00106788
*CONN
*I *1141:A I *D sky130_fd_sc_hd__nand2_1
*I *1142:B1 I *D sky130_fd_sc_hd__a32o_1
*I *1247:X O *D sky130_fd_sc_hd__dlygate4sd3_1
*CAP
1 *1141:A 9.76299e-05
2 *1142:B1 5.59816e-05
3 *1247:X 0
4 *232:4 0.000153611
5 *1141:A *1247:A 0.000139344
6 *1142:A3 *1141:A 0.000355777
7 *1142:A3 *1142:B1 0.000208834
8 *1142:B2 *1142:B1 5.66971e-05
*RES
1 *1247:X *232:4 9.3 
2 *232:4 *1142:B1 11.2732 
3 *232:4 *1141:A 12.7107 
*END

*D_NET *233 0.000300886
*CONN
*I *1109:A1 I *D sky130_fd_sc_hd__mux2_1
*I *1248:X O *D sky130_fd_sc_hd__dlygate4sd3_1
*CAP
1 *1109:A1 0.000137015
2 *1248:X 0.000137015
3 *1109:S *1109:A1 2.68557e-05
*RES
1 *1248:X *1109:A1 20.3679 
*END

*D_NET *234 0.000328341
*CONN
*I *1126:A0 I *D sky130_fd_sc_hd__mux2_1
*I *1249:X O *D sky130_fd_sc_hd__dlygate4sd3_1
*CAP
1 *1126:A0 9.14749e-05
2 *1249:X 9.14749e-05
3 *105:60 *1126:A0 5.65955e-05
4 *105:71 *1126:A0 8.87957e-05
*RES
1 *1249:X *1126:A0 20.7786 
*END

*D_NET *235 0.000715402
*CONN
*I *1112:A1 I *D sky130_fd_sc_hd__mux2_1
*I *1250:X O *D sky130_fd_sc_hd__dlygate4sd3_1
*CAP
1 *1112:A1 0.000184147
2 *1250:X 0.000184147
3 *1230:CLK *1112:A1 3.92854e-05
4 *1296:A *1112:A1 0.000307822
*RES
1 *1250:X *1112:A1 30.8143 
*END

*D_NET *236 0.00426978
*CONN
*I *1067:A0 I *D sky130_fd_sc_hd__mux2_1
*I *1287:X O *D sky130_fd_sc_hd__clkbuf_1
*CAP
1 *1067:A0 0.000207204
2 *1287:X 0.00180436
3 *236:8 0.00201156
4 *1067:A0 *1067:A1 0.000146547
5 *1067:S *1067:A0 0.000100115
6 *1300:A *236:8 0
*RES
1 *1287:X *236:8 47.0143 
2 *236:8 *1067:A0 18.4429 
*END

*D_NET *237 0.000915126
*CONN
*I *1071:A1 I *D sky130_fd_sc_hd__mux2_1
*I *1251:X O *D sky130_fd_sc_hd__dlygate4sd3_1
*CAP
1 *1071:A1 0.000171462
2 *1251:X 0.000171462
3 *1071:A1 *1071:A0 3.18676e-05
4 *1071:A1 *1098:A1 0.000215805
5 *1071:A1 *1099:A1 0.000124749
6 *1071:A1 *1251:A 0.000199782
*RES
1 *1251:X *1071:A1 32.7429 
*END

*D_NET *238 0.000385389
*CONN
*I *1073:A1 I *D sky130_fd_sc_hd__mux2_1
*I *1252:X O *D sky130_fd_sc_hd__dlygate4sd3_1
*CAP
1 *1073:A1 0.000130451
2 *1252:X 0.000130451
3 *1073:A1 *1073:A0 8.75164e-05
4 *80:34 *1073:A1 3.69697e-05
*RES
1 *1252:X *1073:A1 29.7071 
*END

*D_NET *239 0.000767788
*CONN
*I *1079:A1 I *D sky130_fd_sc_hd__mux2_1
*I *1253:X O *D sky130_fd_sc_hd__dlygate4sd3_1
*CAP
1 *1079:A1 0.0003097
2 *1253:X 0.0003097
3 *1238:A *1079:A1 0
4 *202:10 *1079:A1 0.000148388
*RES
1 *1253:X *1079:A1 32.4214 
*END

*D_NET *240 0.000527812
*CONN
*I *1067:A1 I *D sky130_fd_sc_hd__mux2_1
*I *1255:X O *D sky130_fd_sc_hd__dlygate4sd3_1
*CAP
1 *1067:A1 0.000190633
2 *1255:X 0.000190633
3 *1067:A0 *1067:A1 0.000146547
*RES
1 *1255:X *1067:A1 21.1893 
*END

*D_NET *241 0.000552202
*CONN
*I *1181:B2 I *D sky130_fd_sc_hd__a32o_1
*I *1256:X O *D sky130_fd_sc_hd__dlygate4sd3_1
*CAP
1 *1181:B2 0.000177562
2 *1256:X 0.000177562
3 *1181:B2 *1179:A 1.19813e-05
4 *1181:A1 *1181:B2 0.000185097
*RES
1 *1256:X *1181:B2 30.725 
*END

*D_NET *242 0.000415932
*CONN
*I *1077:A1 I *D sky130_fd_sc_hd__mux2_1
*I *1257:X O *D sky130_fd_sc_hd__dlygate4sd3_1
*CAP
1 *1077:A1 0.000198321
2 *1257:X 0.000198321
3 *1077:A1 *1099:A2 1.92905e-05
*RES
1 *1257:X *1077:A1 20.7786 
*END

*D_NET *243 0.000926578
*CONN
*I *1065:A1 I *D sky130_fd_sc_hd__mux2_1
*I *1258:X O *D sky130_fd_sc_hd__dlygate4sd3_1
*CAP
1 *1065:A1 0.000261918
2 *1258:X 0.000261918
3 *1067:S *1065:A1 0.000346044
4 *1068:A *1065:A1 0
5 *80:68 *1065:A1 5.66971e-05
*RES
1 *1258:X *1065:A1 33.3679 
*END

*D_NET *244 0.000593116
*CONN
*I *1185:A1 I *D sky130_fd_sc_hd__o21a_1
*I *1259:X O *D sky130_fd_sc_hd__dlygate4sd3_1
*CAP
1 *1185:A1 0.000175926
2 *1259:X 0.000175926
3 *1185:A1 *271:8 0
4 *1183:C *1185:A1 7.83587e-05
5 *1185:A2 *1185:A1 2.00031e-05
6 *1185:B1 *1185:A1 5.52302e-05
7 *174:41 *1185:A1 8.00806e-05
8 *225:12 *1185:A1 7.5924e-06
*RES
1 *1259:X *1185:A1 30.85 
*END

*D_NET *245 0.00103555
*CONN
*I *1124:A1 I *D sky130_fd_sc_hd__mux2_1
*I *1260:X O *D sky130_fd_sc_hd__dlygate4sd3_1
*CAP
1 *1124:A1 0.000483973
2 *1260:X 0.000483973
3 *1124:S *1124:A1 6.76043e-05
*RES
1 *1260:X *1124:A1 34.0107 
*END

*D_NET *246 0.000186025
*CONN
*I *1103:A2 I *D sky130_fd_sc_hd__a22o_1
*I *1261:X O *D sky130_fd_sc_hd__dlygate4sd3_1
*CAP
1 *1103:A2 5.3608e-05
2 *1261:X 5.3608e-05
3 *83:26 *1103:A2 7.88091e-05
*RES
1 *1261:X *1103:A2 19.9571 
*END

*D_NET *247 0.00932315
*CONN
*I *1069:A0 I *D sky130_fd_sc_hd__mux2_1
*I *1288:X O *D sky130_fd_sc_hd__buf_1
*CAP
1 *1069:A0 0
2 *1288:X 0.00153708
3 *247:16 0.00179133
4 *247:10 0.00332842
5 *247:10 *1041:A 7.77751e-05
6 *247:10 *1041:C_N 0.000241191
7 *247:16 *1038:A 2.84494e-05
8 *247:16 *1069:A1 0.000122957
9 *247:16 *274:17 0
10 *247:16 *274:27 0
11 *247:16 *275:10 0.000113868
12 *1105:A *247:16 0.000102296
13 *1106:S *247:16 7.89362e-05
14 *1120:B *247:16 0.000530123
15 *1121:A0 *247:16 0
16 *1125:A *247:16 0
17 *1126:S *247:16 4.16438e-05
18 *1127:A *247:16 0
19 *1221:D *247:16 0
20 *1249:A *247:16 0
21 *1301:A *247:16 0
22 *80:68 *247:16 0.000402276
23 *87:8 *247:16 0
24 *92:10 *247:10 5.23057e-05
25 *94:27 *247:16 0.000247786
26 *105:84 *247:16 0
27 *204:8 *247:10 0.000626714
*RES
1 *1288:X *247:10 41.4607 
2 *247:10 *247:16 42.3571 
3 *247:16 *1069:A0 9.3 
*END

*D_NET *248 0.000177475
*CONN
*I *1093:A1 I *D sky130_fd_sc_hd__o21a_1
*I *1262:X O *D sky130_fd_sc_hd__dlygate4sd3_1
*CAP
1 *1093:A1 3.64753e-05
2 *1262:X 3.64753e-05
3 *1093:A2 *1093:A1 6.05161e-06
4 *1093:B1 *1093:A1 9.84729e-05
*RES
1 *1262:X *1093:A1 19.5464 
*END

*D_NET *249 0.000663201
*CONN
*I *1075:A1 I *D sky130_fd_sc_hd__mux2_1
*I *1263:X O *D sky130_fd_sc_hd__dlygate4sd3_1
*CAP
1 *1075:A1 0.000250325
2 *1263:X 0.000250325
3 *1075:A1 *1098:A3 2.56694e-05
4 *1075:A1 *1263:A 7.39637e-05
5 *1075:A1 *263:12 0
6 *80:36 *1075:A1 4.01768e-05
7 *80:42 *1075:A1 2.27416e-05
*RES
1 *1263:X *1075:A1 32.4214 
*END

*D_NET *250 0.00044686
*CONN
*I *1069:A1 I *D sky130_fd_sc_hd__mux2_1
*I *1264:X O *D sky130_fd_sc_hd__dlygate4sd3_1
*CAP
1 *1069:A1 0.000161951
2 *1264:X 0.000161951
3 *247:16 *1069:A1 0.000122957
*RES
1 *1264:X *1069:A1 20.7786 
*END

*D_NET *251 0.000604891
*CONN
*I *1106:A1 I *D sky130_fd_sc_hd__mux2_1
*I *1266:X O *D sky130_fd_sc_hd__dlygate4sd3_1
*CAP
1 *1106:A1 0.000202281
2 *1266:X 0.000202281
3 *1106:A0 *1106:A1 5.66971e-05
4 *1107:A *1106:A1 0.000143633
*RES
1 *1266:X *1106:A1 22.4214 
*END

*D_NET *252 0.00133959
*CONN
*I *1115:A0 I *D sky130_fd_sc_hd__mux2_1
*I *1267:X O *D sky130_fd_sc_hd__dlygate4sd3_1
*CAP
1 *1115:A0 0.000387555
2 *1267:X 0.000387555
3 *1115:S *1115:A0 0.000538814
4 *200:21 *1115:A0 2.56694e-05
*RES
1 *1267:X *1115:A0 33.6893 
*END

*D_NET *253 0.000111245
*CONN
*I *1190:A1 I *D sky130_fd_sc_hd__o22a_1
*I *1268:X O *D sky130_fd_sc_hd__dlygate4sd3_1
*CAP
1 *1190:A1 5.56225e-05
2 *1268:X 5.56225e-05
*RES
1 *1268:X *1190:A1 19.5464 
*END

*D_NET *254 0.000707122
*CONN
*I *1172:A1 I *D sky130_fd_sc_hd__a22o_1
*I *1269:X O *D sky130_fd_sc_hd__dlygate4sd3_1
*CAP
1 *1172:A1 7.72518e-05
2 *1269:X 7.72518e-05
3 *1112:S *1172:A1 0.00035571
4 *1118:A0 *1172:A1 7.49053e-05
5 *1169:A *1172:A1 9.83388e-05
6 *180:16 *1172:A1 2.36643e-05
*RES
1 *1269:X *1172:A1 22.0107 
*END

*D_NET *255 0.00193037
*CONN
*I *1034:A I *D sky130_fd_sc_hd__inv_2
*I *1270:X O *D sky130_fd_sc_hd__dlygate4sd3_1
*CAP
1 *1034:A 0.000417275
2 *1270:X 0.000417275
3 *1034:A *1104:A1 5.12608e-05
4 *1034:A *290:67 0.000199905
5 *1034:A *290:69 6.8529e-05
6 *1034:A *291:67 3.69047e-06
7 *1033:A *1034:A 0.000138205
8 *1096:B2 *1034:A 0.000576948
9 *83:101 *1034:A 1.79578e-05
10 *86:8 *1034:A 3.93247e-05
*RES
1 *1270:X *1034:A 40.1714 
*END

*D_NET *256 0.00101042
*CONN
*I *1201:D I *D sky130_fd_sc_hd__dfxtp_1
*I *1271:X O *D sky130_fd_sc_hd__dlygate4sd3_1
*CAP
1 *1201:D 0.000505211
2 *1271:X 0.000505211
*RES
1 *1271:X *1201:D 36.0152 
*END

*D_NET *257 0.00115986
*CONN
*I *1165:B2 I *D sky130_fd_sc_hd__a32o_1
*I *1272:X O *D sky130_fd_sc_hd__dlygate4sd3_1
*CAP
1 *1165:B2 0.000380982
2 *1272:X 0.000380982
3 *1165:B2 *265:10 0.000116659
4 *1165:B2 *265:14 0.000195119
5 *1165:B1 *1165:B2 8.61222e-05
6 *1231:D *1165:B2 0
7 *200:8 *1165:B2 0
*RES
1 *1272:X *1165:B2 35.35 
*END

*D_NET *258 0.000441759
*CONN
*I *1071:A0 I *D sky130_fd_sc_hd__mux2_1
*I *1289:X O *D sky130_fd_sc_hd__clkbuf_1
*CAP
1 *1071:A0 0.000204946
2 *1289:X 0.000204946
3 *1071:A1 *1071:A0 3.18676e-05
*RES
1 *1289:X *1071:A0 21.6179 
*END

*D_NET *259 0.00174356
*CONN
*I *1085:B2 I *D sky130_fd_sc_hd__a32o_1
*I *1273:X O *D sky130_fd_sc_hd__dlygate4sd3_1
*CAP
1 *1085:B2 0.00071186
2 *1273:X 0.00071186
3 *1085:B2 *273:12 3.84349e-05
4 *1085:A3 *1085:B2 4.8843e-05
5 *1085:B1 *1085:B2 4.56162e-05
6 *1117:A *1085:B2 2.44318e-05
7 *1117:B *1085:B2 2.26104e-05
8 *1203:D *1085:B2 0.0001399
9 *204:12 *1085:B2 0
*RES
1 *1273:X *1085:B2 39.5107 
*END

*D_NET *260 0.00109996
*CONN
*I *1091:A1 I *D sky130_fd_sc_hd__o21ba_1
*I *1274:X O *D sky130_fd_sc_hd__dlygate4sd3_1
*CAP
1 *1091:A1 0.000266945
2 *1274:X 0.000266945
3 *1091:A1 *1090:B1 5.52302e-05
4 *1090:A1 *1091:A1 3.13687e-05
5 *1090:A2 *1091:A1 2.32013e-05
6 *77:40 *1091:A1 1.97695e-05
7 *126:6 *1091:A1 3.39935e-05
8 *202:77 *1091:A1 0.000402509
*RES
1 *1274:X *1091:A1 33.9214 
*END

*D_NET *261 0.000347571
*CONN
*I *1118:A1 I *D sky130_fd_sc_hd__mux2_1
*I *1275:X O *D sky130_fd_sc_hd__dlygate4sd3_1
*CAP
1 *1118:A1 0.000149582
2 *1275:X 0.000149582
3 *1233:CLK *1118:A1 4.84073e-05
*RES
1 *1275:X *1118:A1 20.3679 
*END

*D_NET *262 0.00141979
*CONN
*I *1073:A0 I *D sky130_fd_sc_hd__mux2_1
*I *1290:X O *D sky130_fd_sc_hd__clkbuf_1
*CAP
1 *1073:A0 0.000618528
2 *1290:X 0.000618528
3 *1073:A1 *1073:A0 8.75164e-05
4 *1074:A *1073:A0 3.41517e-06
5 *80:34 *1073:A0 9.1799e-05
6 *211:25 *1073:A0 0
*RES
1 *1290:X *1073:A0 37.7607 
*END

*D_NET *263 0.00342736
*CONN
*I *1075:A0 I *D sky130_fd_sc_hd__mux2_1
*I *1291:X O *D sky130_fd_sc_hd__clkbuf_1
*CAP
1 *1075:A0 0
2 *1291:X 0.00154347
3 *263:12 0.00154347
4 *263:12 *1263:A 0
5 *1075:A1 *263:12 0
6 *1076:A *263:12 0.000340415
7 *1228:CLK *263:12 0
*RES
1 *1291:X *263:12 42.1571 
2 *263:12 *1075:A0 9.3 
*END

*D_NET *264 0.00166563
*CONN
*I *1077:A0 I *D sky130_fd_sc_hd__mux2_1
*I *1292:X O *D sky130_fd_sc_hd__clkbuf_1
*CAP
1 *1077:A0 0.000704304
2 *1292:X 0.000704304
3 *1078:A *1077:A0 0
4 *1197:CLK *1077:A0 0.000251215
5 *1292:A *1077:A0 5.80706e-06
*RES
1 *1292:X *1077:A0 41.3143 
*END

*D_NET *265 0.00890396
*CONN
*I *1160:S I *D sky130_fd_sc_hd__mux2_1
*I *1164:B I *D sky130_fd_sc_hd__nand2_1
*I *1166:B I *D sky130_fd_sc_hd__nand3_1
*I *1168:A2 I *D sky130_fd_sc_hd__a31o_1
*I *1162:B I *D sky130_fd_sc_hd__or2_1
*I *1049:B_N I *D sky130_fd_sc_hd__and4bb_1
*I *1173:B I *D sky130_fd_sc_hd__and3_1
*I *1230:Q O *D sky130_fd_sc_hd__dfxtp_1
*CAP
1 *1160:S 0.000289978
2 *1164:B 0
3 *1166:B 0.000236361
4 *1168:A2 0.00032607
5 *1162:B 0
6 *1049:B_N 1.68118e-05
7 *1173:B 0.000404543
8 *1230:Q 0.000447863
9 *265:65 0.000812062
10 *265:54 0.000269678
11 *265:24 0.000659114
12 *265:20 0.000450003
13 *265:14 0.000267665
14 *265:10 0.000813308
15 *1049:B_N *269:25 9.84673e-05
16 *1173:B *1048:C 0
17 *1173:B *1049:A_N 1.30833e-05
18 *1173:B *1049:C 0.000144749
19 *1173:B *271:30 2.89016e-05
20 *1173:B *271:42 4.69993e-05
21 *265:10 *266:23 0
22 *265:20 *1164:A 0.000114817
23 *265:20 *266:55 9.85599e-06
24 *265:24 *1049:A_N 2.53112e-06
25 *265:24 *266:27 0.000114253
26 *265:54 *266:55 5.50052e-05
27 *265:65 *266:55 9.84673e-05
28 *1118:A0 *265:10 0.000572143
29 *1160:A1 *1160:S 0.000617483
30 *1165:A1 *265:20 3.09896e-05
31 *1165:A3 *265:20 5.66971e-05
32 *1165:B2 *265:10 0.000116659
33 *1165:B2 *265:14 0.000195119
34 *1167:A1 *1168:A2 0.00010187
35 *1167:A2 *1168:A2 5.5764e-05
36 *1168:A3 *1168:A2 0.000125731
37 *1169:A *1168:A2 0
38 *1170:A *1168:A2 1.40415e-05
39 *1172:B1 *1168:A2 1.17968e-05
40 *1175:B1_N *1173:B 0.000100451
41 *1177:B *1049:B_N 9.84673e-05
42 *100:8 *1173:B 4.70553e-05
43 *174:109 *265:10 4.27842e-06
44 *174:109 *265:14 9.86497e-05
45 *174:113 *1160:S 0.000137639
46 *180:16 *1168:A2 0.000172718
47 *185:10 *1173:B 0.000184505
48 *198:14 *1173:B 9.3111e-05
49 *225:12 *1173:B 0.000348207
*RES
1 *1230:Q *265:10 20.9071 
2 *265:10 *265:14 7.05357 
3 *265:14 *265:20 4.46429 
4 *265:20 *265:24 9.17857 
5 *265:24 *1173:B 31.8714 
6 *265:24 *1049:B_N 14.7464 
7 *265:20 *265:54 0.535714 
8 *265:54 *1162:B 9.3 
9 *265:54 *265:65 3.85714 
10 *265:65 *1168:A2 25.5857 
11 *265:65 *1166:B 21.4071 
12 *265:14 *1164:B 9.3 
13 *265:10 *1160:S 20.9071 
*END

*D_NET *266 0.00538117
*CONN
*I *1168:A1 I *D sky130_fd_sc_hd__a31o_1
*I *1166:A I *D sky130_fd_sc_hd__nand3_1
*I *1162:A I *D sky130_fd_sc_hd__or2_1
*I *1164:A I *D sky130_fd_sc_hd__nand2_1
*I *1173:A I *D sky130_fd_sc_hd__and3_1
*I *1049:A_N I *D sky130_fd_sc_hd__and4bb_1
*I *1272:A I *D sky130_fd_sc_hd__dlygate4sd3_1
*I *1231:Q O *D sky130_fd_sc_hd__dfxtp_1
*CAP
1 *1168:A1 6.51616e-05
2 *1166:A 0.000198581
3 *1162:A 0
4 *1164:A 6.9763e-05
5 *1173:A 5.38617e-05
6 *1049:A_N 0.000137981
7 *1272:A 0
8 *1231:Q 0.00023215
9 *266:55 0.000159128
10 *266:27 0.000338921
11 *266:25 0.000344759
12 *266:23 0.000551267
13 *266:19 0.000392201
14 *266:12 0.00031482
15 *1049:A_N *1049:C 7.87751e-05
16 *1173:A *269:25 0.000313158
17 *266:12 *1168:B1 0
18 *266:23 *1168:B1 1.76039e-05
19 *1165:A1 *1164:A 0.00010216
20 *1167:A1 *266:23 5.99211e-05
21 *1167:A1 *266:25 2.20029e-05
22 *1167:A2 *1166:A 1.83253e-05
23 *1167:B1 *1166:A 0.000236563
24 *1168:A3 *266:23 0
25 *1170:A *1168:A1 5.17614e-05
26 *1170:A *266:12 0
27 *1171:B *1166:A 8.85045e-06
28 *1172:B1 *1166:A 5.65955e-05
29 *1173:B *1049:A_N 1.30833e-05
30 *1177:B *1049:A_N 6.62058e-05
31 *1177:B *1173:A 0.000254235
32 *1240:A *1049:A_N 7.03515e-05
33 *1240:A *266:25 0.000126278
34 *1240:A *266:27 0.000385087
35 *180:16 *1166:A 5.49544e-05
36 *185:10 *1049:A_N 0.000136733
37 *185:22 *1049:A_N 5.49995e-05
38 *200:8 *266:12 0
39 *265:10 *266:23 0
40 *265:20 *1164:A 0.000114817
41 *265:20 *266:55 9.85599e-06
42 *265:24 *1049:A_N 2.53112e-06
43 *265:24 *266:27 0.000114253
44 *265:54 *266:55 5.50052e-05
45 *265:65 *266:55 9.84673e-05
*RES
1 *1231:Q *266:12 22.1214 
2 *266:12 *1272:A 9.3 
3 *266:12 *266:19 1.35714 
4 *266:19 *266:23 9.17857 
5 *266:23 *266:25 2.55357 
6 *266:25 *266:27 4.98214 
7 *266:27 *1049:A_N 17.2643 
8 *266:27 *1173:A 16.8 
9 *266:25 *266:55 6.26786 
10 *266:55 *1164:A 11.925 
11 *266:55 *1162:A 9.3 
12 *266:23 *1166:A 17.9429 
13 *266:19 *1168:A1 10.6571 
*END

*D_NET *267 0.00553097
*CONN
*I *1166:C I *D sky130_fd_sc_hd__nand3_1
*I *1173:C I *D sky130_fd_sc_hd__and3_1
*I *1048:C I *D sky130_fd_sc_hd__and4bb_1
*I *1168:B1 I *D sky130_fd_sc_hd__a31o_1
*I *1232:Q O *D sky130_fd_sc_hd__dfxtp_1
*CAP
1 *1166:C 8.0924e-05
2 *1173:C 5.11359e-05
3 *1048:C 0.000145575
4 *1168:B1 0.000538464
5 *1232:Q 0.000151282
6 *267:25 0.000648882
7 *267:23 0.00102255
8 *267:6 0.0011792
9 *1048:C *1040:A1 1.08359e-05
10 *1048:C *268:43 0.000241994
11 *1048:C *269:29 3.51224e-05
12 *1166:C *1171:A 3.87153e-05
13 *1173:C *269:25 0.00018504
14 *267:23 *1269:A 0
15 *267:25 *269:29 1.46689e-05
16 *1118:A0 *267:23 5.0696e-05
17 *1118:A0 *267:25 1.95368e-05
18 *1168:A3 *1168:B1 5.80706e-06
19 *1169:A *267:23 8.25218e-05
20 *1170:A *1168:B1 0.000153047
21 *1171:B *1166:C 6.83046e-05
22 *1173:B *1048:C 0
23 *1177:B *1173:C 0.000185118
24 *1200:CLK *1168:B1 0.0001871
25 *1200:CLK *267:6 0.000120737
26 *1232:D *1168:B1 0.000123556
27 *100:8 *1048:C 0
28 *180:16 *267:23 0
29 *198:14 *1048:C 0.000143652
30 *200:87 *1168:B1 2.89114e-05
31 *266:12 *1168:B1 0
32 *266:23 *1168:B1 1.76039e-05
*RES
1 *1232:Q *267:6 11.4786 
2 *267:6 *1168:B1 27.3179 
3 *267:6 *267:23 13.4286 
4 *267:23 *267:25 7.41071 
5 *267:25 *1048:C 17.7107 
6 *267:25 *1173:C 16.1929 
7 *267:23 *1166:C 15.4786 
*END

*D_NET *268 0.00414108
*CONN
*I *1269:A I *D sky130_fd_sc_hd__dlygate4sd3_1
*I *1176:A I *D sky130_fd_sc_hd__nand2_1
*I *1174:B I *D sky130_fd_sc_hd__and3_1
*I *1048:D I *D sky130_fd_sc_hd__and4bb_1
*I *1040:A2 I *D sky130_fd_sc_hd__a21o_2
*I *1171:A I *D sky130_fd_sc_hd__nor2_1
*I *1233:Q O *D sky130_fd_sc_hd__dfxtp_1
*CAP
1 *1269:A 0.000196273
2 *1176:A 0
3 *1174:B 0
4 *1048:D 0
5 *1040:A2 0.000210833
6 *1171:A 0.00029022
7 *1233:Q 0
8 *268:43 0.000320286
9 *268:33 0.000291685
10 *268:25 0.000621219
11 *268:17 0.00063526
12 *268:4 0.00029022
13 *1040:A2 *1040:A1 4.96113e-05
14 *1040:A2 *270:27 0
15 *1040:A2 *271:42 7.79781e-06
16 *268:43 *1040:A1 9.25014e-06
17 *268:43 *269:29 8.94857e-05
18 *1048:C *268:43 0.000241994
19 *1118:A0 *1171:A 0.000271152
20 *1166:C *1171:A 3.87153e-05
21 *1171:B *1171:A 7.30633e-07
22 *1176:B *268:25 0
23 *1176:B *268:33 5.38444e-06
24 *1177:B *268:33 0.000161618
25 *1233:D *1269:A 7.83587e-05
26 *99:8 *1040:A2 5.93614e-05
27 *100:8 *1040:A2 0
28 *140:12 *1269:A 0
29 *198:14 *268:43 4.56405e-05
30 *225:12 *268:43 0.000225982
31 *267:23 *1269:A 0
*RES
1 *1233:Q *268:4 9.3 
2 *268:4 *1171:A 13.6482 
3 *268:4 *268:17 4.5 
4 *268:17 *268:25 12.4821 
5 *268:25 *268:33 3.46429 
6 *268:33 *268:43 12.9464 
7 *268:43 *1040:A2 22.2286 
8 *268:43 *1048:D 9.3 
9 *268:33 *1174:B 9.3 
10 *268:25 *1176:A 9.3 
11 *268:17 *1269:A 16.9607 
*END

*D_NET *269 0.00466766
*CONN
*I *1174:A I *D sky130_fd_sc_hd__and3_1
*I *1048:A_N I *D sky130_fd_sc_hd__and4bb_1
*I *1040:A1 I *D sky130_fd_sc_hd__a21o_2
*I *1279:A I *D sky130_fd_sc_hd__dlygate4sd3_1
*I *1234:Q O *D sky130_fd_sc_hd__dfxtp_1
*CAP
1 *1174:A 1.19212e-05
2 *1048:A_N 0
3 *1040:A1 0.000472061
4 *1279:A 0.000225801
5 *1234:Q 0
6 *269:29 0.000627608
7 *269:25 0.000883776
8 *269:4 0.000942109
9 *1040:A1 *1048:B_N 0
10 *1040:A2 *1040:A1 4.96113e-05
11 *1048:C *1040:A1 1.08359e-05
12 *1048:C *269:29 3.51224e-05
13 *1049:B_N *269:25 9.84673e-05
14 *1173:A *269:25 0.000313158
15 *1173:C *269:25 0.00018504
16 *1176:B *1174:A 5.49544e-05
17 *1176:B *269:25 5.40546e-05
18 *1177:B *1174:A 2.23592e-05
19 *1177:B *269:25 0.000196605
20 *1178:B2 *1279:A 7.89362e-05
21 *174:94 *269:25 2.12733e-05
22 *174:109 *269:25 0.000141935
23 *184:6 *269:25 0.000128623
24 *267:25 *269:29 1.46689e-05
25 *268:43 *1040:A1 9.25014e-06
26 *268:43 *269:29 8.94857e-05
*RES
1 *1234:Q *269:4 9.3 
2 *269:4 *1279:A 22.2464 
3 *269:4 *269:25 11.7679 
4 *269:25 *269:29 7.05357 
5 *269:29 *1040:A1 20.1214 
6 *269:29 *1048:A_N 13.8 
7 *269:25 *1174:A 9.83571 
*END

*D_NET *270 0.00621831
*CONN
*I *1256:A I *D sky130_fd_sc_hd__dlygate4sd3_1
*I *1180:A I *D sky130_fd_sc_hd__nand2_1
*I *1179:A I *D sky130_fd_sc_hd__or2_1
*I *1040:B1 I *D sky130_fd_sc_hd__a21o_2
*I *1049:D I *D sky130_fd_sc_hd__and4bb_1
*I *1183:B I *D sky130_fd_sc_hd__nand3_1
*I *1235:Q O *D sky130_fd_sc_hd__dfxtp_1
*CAP
1 *1256:A 0
2 *1180:A 1.44232e-05
3 *1179:A 9.03638e-05
4 *1040:B1 6.58761e-05
5 *1049:D 0.000207321
6 *1183:B 8.91376e-05
7 *1235:Q 0.000470391
8 *270:53 0.000223342
9 *270:27 0.00105382
10 *270:16 0.00110632
11 *270:12 0.000436655
12 *270:8 0.000551928
13 *1183:B *271:8 1.46148e-05
14 *1183:B *271:23 5.33005e-05
15 *270:16 *271:23 0.000103267
16 *1040:A2 *270:27 0
17 *1175:B1_N *1049:D 0
18 *1177:B *1049:D 5.33005e-05
19 *1178:B1 *270:27 0.000116039
20 *1178:B2 *270:27 9.71197e-05
21 *1179:B *1179:A 5.38444e-06
22 *1179:B *1180:A 5.38444e-06
23 *1181:A1 *270:8 0.000175741
24 *1181:B2 *1179:A 1.19813e-05
25 *1183:C *1179:A 5.45307e-05
26 *1234:D *270:16 0
27 *1235:D *270:8 1.84776e-05
28 *1240:A *1049:D 0.000192707
29 *100:8 *1049:D 0.000331998
30 *173:21 *270:12 3.33175e-05
31 *173:21 *270:16 0.000157945
32 *173:42 *270:12 2.93426e-05
33 *185:10 *1049:D 2.59355e-05
34 *185:22 *1180:A 2.48034e-05
35 *185:22 *270:53 0.000106989
36 *185:26 *1179:A 2.36643e-05
37 *185:26 *1180:A 6.68086e-05
38 *185:26 *270:53 9.76435e-06
39 *199:14 *270:16 0.000196314
*RES
1 *1235:Q *270:8 17.55 
2 *270:8 *270:12 6.14286 
3 *270:12 *270:16 9.78571 
4 *270:16 *1183:B 10.6571 
5 *270:16 *270:27 12.4643 
6 *270:27 *1049:D 23.5143 
7 *270:27 *1040:B1 10.2464 
8 *270:12 *270:53 6.28571 
9 *270:53 *1179:A 11.4964 
10 *270:53 *1180:A 10.2643 
11 *270:8 *1256:A 9.3 
*END

*D_NET *271 0.00712211
*CONN
*I *1049:C I *D sky130_fd_sc_hd__and4bb_1
*I *1062:A I *D sky130_fd_sc_hd__and3_1
*I *1042:A I *D sky130_fd_sc_hd__nand4_4
*I *1046:A1 I *D sky130_fd_sc_hd__a311oi_4
*I *1259:A I *D sky130_fd_sc_hd__dlygate4sd3_1
*I *1183:A I *D sky130_fd_sc_hd__nand3_1
*I *1236:Q O *D sky130_fd_sc_hd__dfxtp_2
*CAP
1 *1049:C 0.000126349
2 *1062:A 0
3 *1042:A 0
4 *1046:A1 0.00026472
5 *1259:A 0
6 *1183:A 0
7 *1236:Q 0.000375772
8 *271:46 0.000347831
9 *271:42 0.000502189
10 *271:30 0.00105447
11 *271:23 0.000621492
12 *271:8 0.000488223
13 *1046:A1 *272:42 0
14 *1046:A1 *278:63 4.1331e-06
15 *1040:A2 *271:42 7.79781e-06
16 *1046:B1 *1046:A1 1.00332e-05
17 *1049:A_N *1049:C 7.87751e-05
18 *1056:C *1046:A1 4.98427e-05
19 *1059:B *271:46 0
20 *1062:C *271:46 0.000131656
21 *1081:A *1046:A1 7.6997e-05
22 *1173:B *1049:C 0.000144749
23 *1173:B *271:30 2.89016e-05
24 *1173:B *271:42 4.69993e-05
25 *1175:B1_N *1049:C 2.59093e-05
26 *1177:B *1049:C 9.41642e-05
27 *1183:B *271:8 1.46148e-05
28 *1183:B *271:23 5.33005e-05
29 *1183:C *271:8 3.05605e-05
30 *1185:A1 *271:8 0
31 *1185:B1 *271:8 0.000269802
32 *1236:D *271:8 5.62995e-05
33 *1240:A *1049:C 4.95976e-05
34 *91:23 *271:42 4.40586e-05
35 *91:23 *271:46 0.000225982
36 *92:23 *1046:A1 0
37 *99:8 *271:42 0.000489436
38 *100:8 *271:42 0.0001416
39 *108:12 *271:42 6.74911e-05
40 *111:16 *1046:A1 7.70035e-05
41 *173:21 *271:23 0.000125731
42 *185:10 *1049:C 2.38501e-05
43 *192:10 *271:8 1.24368e-05
44 *192:10 *271:23 1.21258e-05
45 *198:14 *271:42 0.000224583
46 *199:14 *271:30 0.000361914
47 *225:12 *271:30 0.000257459
48 *270:16 *271:23 0.000103267
*RES
1 *1236:Q *271:8 16.3179 
2 *271:8 *1183:A 9.3 
3 *271:8 *271:23 11.9107 
4 *271:23 *1259:A 9.3 
5 *271:23 *271:30 10.8036 
6 *271:30 *271:42 20.2857 
7 *271:42 *271:46 2.60714 
8 *271:46 *1046:A1 23.3714 
9 *271:46 *1042:A 9.3 
10 *271:42 *1062:A 9.3 
11 *271:30 *1049:C 21.8 
*END

*D_NET *272 0.00548128
*CONN
*I *1046:A2 I *D sky130_fd_sc_hd__a311oi_4
*I *1042:B I *D sky130_fd_sc_hd__nand4_4
*I *1048:B_N I *D sky130_fd_sc_hd__and4bb_1
*I *1062:B I *D sky130_fd_sc_hd__and3_1
*I *1268:A I *D sky130_fd_sc_hd__dlygate4sd3_1
*I *1187:A I *D sky130_fd_sc_hd__inv_2
*I *1237:Q O *D sky130_fd_sc_hd__dfxtp_2
*CAP
1 *1046:A2 0
2 *1042:B 0
3 *1048:B_N 0.000479415
4 *1062:B 2.30322e-05
5 *1268:A 0
6 *1187:A 4.64349e-05
7 *1237:Q 0.000202364
8 *272:61 0.000707792
9 *272:50 0.000421187
10 *272:42 0.00062769
11 *272:21 0.00056301
12 *272:6 0.000353897
13 *1040:A1 *1048:B_N 0
14 *1042:C *272:61 8.11878e-05
15 *1042:D *272:61 1.97695e-05
16 *1046:A1 *272:42 0
17 *1051:A1 *272:42 0.000407808
18 *1051:A1 *272:50 1.08359e-05
19 *1051:A2 *272:42 0.000343438
20 *1056:C *272:42 2.95726e-05
21 *1061:A2 *272:50 0.000201482
22 *1081:B *1048:B_N 6.07328e-05
23 *1189:B2 *272:21 0
24 *91:23 *272:50 0.000226417
25 *91:23 *272:61 0.000181996
26 *92:23 *1048:B_N 5.80706e-06
27 *108:12 *272:50 0.000172368
28 *138:14 *1187:A 0.000100165
29 *138:14 *272:6 2.97578e-05
30 *198:14 *1048:B_N 0.000185118
*RES
1 *1237:Q *272:6 11.8893 
2 *272:6 *1187:A 10.9786 
3 *272:6 *272:21 10.6429 
4 *272:21 *1268:A 9.3 
5 *272:21 *272:42 11.6607 
6 *272:42 *272:50 13.4286 
7 *272:50 *1062:B 9.72857 
8 *272:50 *272:61 4.55357 
9 *272:61 *1048:B_N 26.8714 
10 *272:61 *1042:B 9.3 
11 *272:42 *1046:A2 9.3 
*END

*D_NET *273 0.00761903
*CONN
*I *1120:C_N I *D sky130_fd_sc_hd__or3b_1
*I *1123:B I *D sky130_fd_sc_hd__or3b_1
*I *1036:A I *D sky130_fd_sc_hd__nand2_1
*I *1037:A I *D sky130_fd_sc_hd__or2_1
*I *1108:D_N I *D sky130_fd_sc_hd__or4b_1
*I *1114:A I *D sky130_fd_sc_hd__and4_1
*I *1083:S I *D sky130_fd_sc_hd__mux2_1
*I *1111:A I *D sky130_fd_sc_hd__or4b_1
*I *1202:Q O *D sky130_fd_sc_hd__dfxtp_1
*CAP
1 *1120:C_N 0.000141853
2 *1123:B 0.000259289
3 *1036:A 1.50486e-05
4 *1037:A 0
5 *1108:D_N 0
6 *1114:A 0.00029215
7 *1083:S 0
8 *1111:A 0
9 *1202:Q 8.45032e-05
10 *273:75 0.00033017
11 *273:49 0.000570753
12 *273:38 0.000483572
13 *273:30 0.00066288
14 *273:18 0.000498819
15 *273:12 0.00049256
16 *273:8 0.000622176
17 *1036:A *274:29 5.7661e-06
18 *1114:A *1114:C 2.42516e-05
19 *1120:C_N *1114:C 0.000183634
20 *1120:C_N *1120:A 7.84064e-05
21 *1120:C_N *274:6 0.000129297
22 *1123:B *1123:C_N 6.95514e-05
23 *273:12 *274:27 0.000177305
24 *273:18 *274:29 7.11278e-06
25 *273:18 *274:37 5.2027e-05
26 *273:30 *274:37 4.03963e-05
27 *273:30 *275:18 0.000144466
28 *273:30 *275:24 2.28598e-05
29 *273:38 *1111:C 8.00806e-05
30 *273:38 *275:24 0.00020168
31 *273:75 *1123:C_N 2.39313e-05
32 *273:75 *274:27 5.52238e-05
33 *273:75 *274:37 1.67308e-05
34 *1083:A0 *1114:A 0.000182806
35 *1083:A1 *1114:A 5.50052e-05
36 *1083:A1 *273:49 0.000367753
37 *1085:A1 *273:49 0
38 *1085:B2 *273:12 3.84349e-05
39 *1114:D *1114:A 0.000129504
40 *1117:B *273:49 3.57844e-05
41 *1203:D *1114:A 5.50052e-05
42 *88:6 *273:18 3.43118e-05
43 *88:6 *273:75 6.05161e-06
44 *88:14 *273:18 3.69047e-06
45 *88:14 *273:30 1.83053e-05
46 *88:36 *273:12 2.82405e-05
47 *88:36 *273:30 0.000100639
48 *93:6 *273:38 2.44318e-05
49 *93:68 *273:38 2.82057e-05
50 *93:68 *273:49 4.48583e-05
51 *121:21 *273:49 0
52 *122:10 *273:38 0.000129868
53 *122:10 *273:49 0.000214349
54 *124:8 *273:30 0.00014285
55 *198:12 *273:49 0
56 *201:43 *273:30 0.000168929
57 *204:12 *273:12 0
58 *204:12 *273:30 4.35141e-05
*RES
1 *1202:Q *273:8 15.1393 
2 *273:8 *273:12 12.2143 
3 *273:12 *273:18 1.5 
4 *273:18 *273:30 18.7143 
5 *273:30 *273:38 9.16071 
6 *273:38 *1111:A 13.8 
7 *273:38 *273:49 11.9107 
8 *273:49 *1083:S 9.3 
9 *273:49 *1114:A 15.1929 
10 *273:30 *1108:D_N 9.3 
11 *273:18 *1037:A 9.3 
12 *273:12 *273:75 1.35714 
13 *273:75 *1036:A 9.72857 
14 *273:75 *1123:B 13.0321 
15 *273:8 *1120:C_N 17.6393 
*END

*D_NET *274 0.00632779
*CONN
*I *1120:A I *D sky130_fd_sc_hd__or3b_1
*I *1273:A I *D sky130_fd_sc_hd__dlygate4sd3_1
*I *1036:B I *D sky130_fd_sc_hd__nand2_1
*I *1123:C_N I *D sky130_fd_sc_hd__or3b_1
*I *1037:B I *D sky130_fd_sc_hd__or2_1
*I *1111:D_N I *D sky130_fd_sc_hd__or4b_1
*I *1108:B I *D sky130_fd_sc_hd__or4b_1
*I *1114:C I *D sky130_fd_sc_hd__and4_1
*I *1203:Q O *D sky130_fd_sc_hd__dfxtp_1
*CAP
1 *1120:A 0.000154357
2 *1273:A 0
3 *1036:B 0
4 *1123:C_N 0.000209929
5 *1037:B 0
6 *1111:D_N 2.20796e-05
7 *1108:B 0.00012618
8 *1114:C 0.000648721
9 *1203:Q 0
10 *274:39 0.000586074
11 *274:37 0.000621444
12 *274:29 0.000409227
13 *274:27 0.00035974
14 *274:17 0.000539107
15 *274:6 0.000936695
16 *274:4 0.000247296
17 *1108:B *1111:C 0
18 *1111:D_N *1111:C 0
19 *1036:A *274:29 5.7661e-06
20 *1085:A1 *1108:B 0.000197269
21 *1114:A *1114:C 2.42516e-05
22 *1120:C_N *1114:C 0.000183634
23 *1120:C_N *1120:A 7.84064e-05
24 *1120:C_N *274:6 0.000129297
25 *1123:B *1123:C_N 6.95514e-05
26 *1203:D *1114:C 0.000206157
27 *88:14 *274:37 2.54304e-06
28 *88:14 *274:39 9.70196e-05
29 *93:12 *1108:B 2.19684e-05
30 *93:68 *1108:B 4.94455e-05
31 *121:10 *274:39 2.89016e-05
32 *247:16 *274:17 0
33 *247:16 *274:27 0
34 *273:12 *274:27 0.000177305
35 *273:18 *274:29 7.11278e-06
36 *273:18 *274:37 5.2027e-05
37 *273:30 *274:37 4.03963e-05
38 *273:75 *1123:C_N 2.39313e-05
39 *273:75 *274:27 5.52238e-05
40 *273:75 *274:37 1.67308e-05
*RES
1 *1203:Q *274:4 9.3 
2 *274:4 *274:6 1.35714 
3 *274:6 *1114:C 17.6393 
4 *274:6 *274:17 7.66071 
5 *274:17 *274:27 11.3929 
6 *274:27 *274:29 0.428571 
7 *274:29 *274:37 3.16071 
8 *274:37 *274:39 7.10714 
9 *274:39 *1108:B 21.2821 
10 *274:39 *1111:D_N 9.72857 
11 *274:37 *1037:B 9.3 
12 *274:29 *1123:C_N 13.1393 
13 *274:27 *1036:B 9.3 
14 *274:17 *1273:A 13.8 
15 *274:4 *1120:A 11.925 
*END

*D_NET *275 0.00457598
*CONN
*I *1038:A I *D sky130_fd_sc_hd__or2_1
*I *1039:A I *D sky130_fd_sc_hd__nand2_1
*I *1086:A I *D sky130_fd_sc_hd__inv_2
*I *1108:A I *D sky130_fd_sc_hd__or4b_1
*I *1111:C I *D sky130_fd_sc_hd__or4b_1
*I *1204:Q O *D sky130_fd_sc_hd__dfxtp_1
*CAP
1 *1038:A 2.34962e-05
2 *1039:A 4.11574e-05
3 *1086:A 1.11927e-05
4 *1108:A 0
5 *1111:C 7.98143e-05
6 *1204:Q 0.000261947
7 *275:24 0.000199668
8 *275:18 0.000559985
9 *275:14 0.000564183
10 *275:10 0.00037953
11 *1044:B *275:14 0.000223469
12 *1105:A *275:10 7.62718e-05
13 *1105:B *1038:A 4.42509e-05
14 *1105:B *275:10 0.000285684
15 *1108:B *1111:C 0
16 *1111:D_N *1111:C 0
17 *87:8 *1039:A 2.6304e-05
18 *93:6 *275:24 5.52238e-05
19 *93:68 *1111:C 0.000125731
20 *94:27 *275:14 0.000139202
21 *122:10 *1111:C 2.82057e-05
22 *140:12 *1111:C 2.34059e-05
23 *201:43 *275:14 0.000393285
24 *201:43 *275:18 0.000442566
25 *204:12 *1039:A 0
26 *247:16 *1038:A 2.84494e-05
27 *247:16 *275:10 0.000113868
28 *273:30 *275:18 0.000144466
29 *273:30 *275:24 2.28598e-05
30 *273:38 *1111:C 8.00806e-05
31 *273:38 *275:24 0.00020168
*RES
1 *1204:Q *275:10 19.3357 
2 *275:10 *275:14 8.32143 
3 *275:14 *275:18 8.35714 
4 *275:18 *275:24 3.14286 
5 *275:24 *1111:C 20.675 
6 *275:24 *1108:A 9.3 
7 *275:18 *1086:A 9.72857 
8 *275:14 *1039:A 19.0321 
9 *275:10 *1038:A 14.5321 
*END

*D_NET *276 0.00805611
*CONN
*I *1052:B I *D sky130_fd_sc_hd__or3_1
*I *1047:A I *D sky130_fd_sc_hd__and2_1
*I *1058:B I *D sky130_fd_sc_hd__and3b_1
*I *1050:C_N I *D sky130_fd_sc_hd__or3b_1
*I *1089:A1 I *D sky130_fd_sc_hd__o22a_1
*I *1063:B I *D sky130_fd_sc_hd__and4b_1
*I *1189:A1 I *D sky130_fd_sc_hd__o221a_1
*I *1041:B I *D sky130_fd_sc_hd__nor3b_2
*I *1211:Q O *D sky130_fd_sc_hd__dfxtp_2
*CAP
1 *1052:B 0
2 *1047:A 1.59276e-05
3 *1058:B 1.97574e-05
4 *1050:C_N 2.13113e-05
5 *1089:A1 0.000431014
6 *1063:B 2.37611e-05
7 *1189:A1 0.000225688
8 *1041:B 0.000129776
9 *1211:Q 9.31148e-05
10 *276:58 0.000716182
11 *276:45 0.000541004
12 *276:43 0.00045619
13 *276:39 0.000670532
14 *276:33 0.000581951
15 *276:23 0.000477926
16 *276:8 0.000404598
17 *1041:B *1041:A 0.000275094
18 *1041:B *1052:C 2.8266e-06
19 *1089:A1 *1063:A_N 0
20 *1089:A1 *1089:A2 0.000570541
21 *1089:A1 *277:51 4.66511e-05
22 *1189:A1 *1189:A2 4.914e-05
23 *276:23 *1041:A 0.000270943
24 *276:23 *1052:C 9.45575e-05
25 *276:33 *1052:C 7.89231e-05
26 *276:39 *277:25 2.12005e-05
27 *276:39 *277:38 0.000229493
28 *276:43 *1050:A 5.49995e-05
29 *276:43 *277:38 0.000254308
30 *276:58 *277:51 0
31 *1047:B *1047:A 1.02132e-05
32 *1047:B *276:33 5.46536e-05
33 *1047:B *276:39 4.28478e-05
34 *1056:B *276:23 0.000140933
35 *1056:B *276:33 5.33005e-05
36 *1058:C *276:39 0.000139208
37 *1089:B1 *1089:A1 0
38 *1089:B2 *1089:A1 0
39 *1109:S *1189:A1 0.000184503
40 *1188:B *276:43 5.50052e-05
41 *1189:B1 *1189:A1 5.49995e-05
42 *1189:C1 *1189:A1 0.000171624
43 *1189:C1 *276:43 8.18835e-05
44 *1189:C1 *276:45 7.01807e-05
45 *69:10 *1063:B 1.19309e-05
46 *69:10 *1089:A1 0
47 *92:10 *1041:B 0
48 *92:10 *276:33 5.58941e-05
49 *92:23 *276:33 0.000171519
*RES
1 *1211:Q *276:8 14.7464 
2 *276:8 *1041:B 17.2643 
3 *276:8 *276:23 9.32143 
4 *276:23 *276:33 14.5714 
5 *276:33 *276:39 5.80357 
6 *276:39 *276:43 7.125 
7 *276:43 *276:45 1.35714 
8 *276:45 *1189:A1 15.1929 
9 *276:45 *276:58 8.875 
10 *276:58 *1063:B 14.5321 
11 *276:58 *1089:A1 23.2286 
12 *276:43 *1050:C_N 9.72857 
13 *276:39 *1058:B 9.72857 
14 *276:33 *1047:A 9.72857 
15 *276:23 *1052:B 9.3 
*END

*D_NET *277 0.0091717
*CONN
*I *1052:C I *D sky130_fd_sc_hd__or3_1
*I *1050:B I *D sky130_fd_sc_hd__or3b_1
*I *1063:C I *D sky130_fd_sc_hd__and4b_1
*I *1089:A2 I *D sky130_fd_sc_hd__o22a_1
*I *1189:A2 I *D sky130_fd_sc_hd__o221a_1
*I *1045:A I *D sky130_fd_sc_hd__inv_2
*I *1041:C_N I *D sky130_fd_sc_hd__nor3b_2
*I *1212:Q O *D sky130_fd_sc_hd__dfxtp_2
*CAP
1 *1052:C 0.000410206
2 *1050:B 0.000106503
3 *1063:C 4.58188e-05
4 *1089:A2 0.000336567
5 *1189:A2 0.000462341
6 *1045:A 0
7 *1041:C_N 0.000385006
8 *1212:Q 0
9 *277:51 0.000569073
10 *277:49 0.000293191
11 *277:38 0.000953897
12 *277:25 0.000899395
13 *277:8 0.000949237
14 *277:4 0.000566598
15 *1050:B *278:25 2.56839e-05
16 *1050:B *278:36 1.50223e-05
17 *1052:C *1041:A 0
18 *1052:C *278:76 0
19 *1089:A2 *278:25 5.03787e-05
20 *277:25 *1058:A_N 5.37741e-06
21 *277:51 *278:25 0.000102975
22 *1041:B *1052:C 2.8266e-06
23 *1056:B *277:25 3.92866e-05
24 *1058:C *277:25 6.56312e-06
25 *1058:C *277:38 7.32756e-05
26 *1061:A1 *277:38 2.83425e-05
27 *1063:D *1063:C 4.21463e-05
28 *1089:A1 *1089:A2 0.000570541
29 *1089:A1 *277:51 4.66511e-05
30 *1089:B2 *1089:A2 7.43578e-06
31 *1189:A1 *1189:A2 4.914e-05
32 *1189:B1 *1189:A2 3.11088e-05
33 *1189:C1 *1189:A2 0.00048708
34 *1189:C1 *277:38 0.000313215
35 *1212:D *1041:C_N 0
36 *1212:D *277:25 0
37 *1288:A *1041:C_N 0
38 *69:10 *1063:C 0.0001399
39 *92:10 *1041:C_N 5.52302e-05
40 *92:10 *1052:C 0.000139777
41 *98:8 *277:25 4.22387e-05
42 *247:10 *1041:C_N 0.000241191
43 *276:23 *1052:C 9.45575e-05
44 *276:33 *1052:C 7.89231e-05
45 *276:39 *277:25 2.12005e-05
46 *276:39 *277:38 0.000229493
47 *276:43 *277:38 0.000254308
48 *276:58 *277:51 0
*RES
1 *1212:Q *277:4 9.3 
2 *277:4 *277:8 6.26786 
3 *277:8 *1041:C_N 21.4964 
4 *277:8 *277:25 11.5357 
5 *277:25 *1045:A 9.3 
6 *277:25 *277:38 9.92857 
7 *277:38 *1189:A2 16.3179 
8 *277:38 *277:49 4.5 
9 *277:49 *277:51 4.07143 
10 *277:51 *1089:A2 21.9071 
11 *277:51 *1063:C 15.1571 
12 *277:49 *1050:B 15.4429 
13 *277:4 *1052:C 25.675 
*END

*D_NET *278 0.00993444
*CONN
*I *1159:B1 I *D sky130_fd_sc_hd__a31o_2
*I *1052:A I *D sky130_fd_sc_hd__or3_1
*I *1041:A I *D sky130_fd_sc_hd__nor3b_2
*I *1046:C1 I *D sky130_fd_sc_hd__a311oi_4
*I *1058:A_N I *D sky130_fd_sc_hd__and3b_1
*I *1050:A I *D sky130_fd_sc_hd__or3b_1
*I *1063:A_N I *D sky130_fd_sc_hd__and4b_1
*I *1213:Q O *D sky130_fd_sc_hd__dfxtp_2
*CAP
1 *1159:B1 0.00039106
2 *1052:A 2.12761e-05
3 *1041:A 0.000376624
4 *1046:C1 0
5 *1058:A_N 0.000273189
6 *1050:A 1.42517e-05
7 *1063:A_N 0.000280499
8 *1213:Q 0
9 *278:76 0.00101775
10 *278:63 0.000856124
11 *278:42 0.00114387
12 *278:36 0.00109981
13 *278:25 0.000559121
14 *278:4 0.000751027
15 *1041:B *1041:A 0.000275094
16 *1046:A1 *278:63 4.1331e-06
17 *1046:B1 *1058:A_N 3.42301e-05
18 *1046:B1 *278:63 9.13141e-05
19 *1050:B *278:25 2.56839e-05
20 *1050:B *278:36 1.50223e-05
21 *1051:B1 *1159:B1 0.000111203
22 *1051:B1 *278:36 3.20387e-05
23 *1052:C *1041:A 0
24 *1052:C *278:76 0
25 *1056:B *1052:A 0.00014285
26 *1056:C *278:76 0.000267158
27 *1057:A *1041:A 0
28 *1058:C *1058:A_N 4.38088e-05
29 *1063:D *278:25 0
30 *1089:A1 *1063:A_N 0
31 *1089:A2 *278:25 5.03787e-05
32 *1159:A2 *1159:B1 0.000230475
33 *1188:B *278:25 4.27842e-06
34 *1188:B *278:36 2.72055e-05
35 *1189:C1 *1050:A 2.85234e-05
36 *1211:D *1041:A 0
37 *1212:CLK *1063:A_N 0.000227526
38 *1212:CLK *278:25 0.000130419
39 *1212:D *278:25 0
40 *69:10 *1063:A_N 0.000117868
41 *92:23 *278:63 0
42 *92:23 *278:76 0
43 *97:8 *278:63 2.83284e-06
44 *97:29 *1159:B1 0
45 *105:45 *1052:A 0.00014285
46 *111:16 *1159:B1 0
47 *138:14 *278:42 0.00045508
48 *138:14 *278:76 5.11714e-05
49 *173:10 *1159:B1 0.000126629
50 *247:10 *1041:A 7.77751e-05
51 *276:23 *1041:A 0.000270943
52 *276:43 *1050:A 5.49995e-05
53 *277:25 *1058:A_N 5.37741e-06
54 *277:51 *278:25 0.000102975
*RES
1 *1213:Q *278:4 9.3 
2 *278:4 *1063:A_N 23.0679 
3 *278:4 *278:25 12.6607 
4 *278:25 *1050:A 14.3357 
5 *278:25 *278:36 1.64286 
6 *278:36 *278:42 17.3393 
7 *278:42 *1058:A_N 17.6393 
8 *278:42 *278:63 8.73214 
9 *278:63 *1046:C1 9.3 
10 *278:63 *278:76 16.6786 
11 *278:76 *1041:A 22.5679 
12 *278:76 *1052:A 15.1571 
13 *278:36 *1159:B1 21.8714 
*END

*D_NET *279 0.00379829
*CONN
*I *1137:A I *D sky130_fd_sc_hd__and3_1
*I *1136:A1 I *D sky130_fd_sc_hd__a21o_1
*I *1134:A I *D sky130_fd_sc_hd__nand2_1
*I *1133:A I *D sky130_fd_sc_hd__or2_1
*I *1131:S I *D sky130_fd_sc_hd__mux2_1
*I *1222:Q O *D sky130_fd_sc_hd__dfxtp_1
*CAP
1 *1137:A 7.43328e-05
2 *1136:A1 0
3 *1134:A 1.11927e-05
4 *1133:A 7.0537e-05
5 *1131:S 0.000307198
6 *1222:Q 0.000127328
7 *279:49 0.000383175
8 *279:27 0.000173057
9 *279:21 0.000492229
10 *279:8 0.000526585
11 *1137:A *1137:B 2.89114e-05
12 *1137:A *1137:C 7.78015e-05
13 *279:49 *280:32 0.000126582
14 *1131:A1 *1131:S 4.93118e-06
15 *1145:A1 *1137:A 0
16 *1265:A *279:27 1.04232e-05
17 *1303:A *1133:A 8.07313e-05
18 *1303:A *279:27 9.76491e-05
19 *83:26 *1131:S 0.00013909
20 *209:16 *1131:S 0.00027116
21 *209:16 *279:21 0.000141375
22 *209:16 *279:49 0.000550731
23 *216:10 *279:49 0.000103267
*RES
1 *1222:Q *279:8 15.1571 
2 *279:8 *1131:S 21.0857 
3 *279:8 *279:21 1.94643 
4 *279:21 *279:27 6.69643 
5 *279:27 *1133:A 11.0857 
6 *279:27 *1134:A 9.72857 
7 *279:21 *279:49 12.5536 
8 *279:49 *1136:A1 9.3 
9 *279:49 *1137:A 11.4071 
*END

*D_NET *280 0.00338094
*CONN
*I *1137:B I *D sky130_fd_sc_hd__and3_1
*I *1136:A2 I *D sky130_fd_sc_hd__a21o_1
*I *1280:A I *D sky130_fd_sc_hd__dlygate4sd3_1
*I *1133:B I *D sky130_fd_sc_hd__or2_1
*I *1223:Q O *D sky130_fd_sc_hd__dfxtp_1
*CAP
1 *1137:B 0.000173668
2 *1136:A2 0
3 *1280:A 2.23854e-05
4 *1133:B 0.000152571
5 *1223:Q 0.000415905
6 *280:32 0.000555806
7 *280:19 0.000456653
8 *280:6 0.000620607
9 *1137:B *1137:C 1.03968e-05
10 *1134:B *1133:B 1.69115e-05
11 *1134:B *280:19 1.15281e-05
12 *1134:B *280:32 9.99644e-06
13 *1135:A3 *1133:B 0.000150618
14 *1135:A3 *280:6 0.000442956
15 *1135:A3 *280:19 4.08637e-05
16 *1137:A *1137:B 2.89114e-05
17 *1281:A *280:6 1.99856e-05
18 *83:37 *1133:B 0
19 *153:10 *1137:B 0
20 *153:10 *280:32 0
21 *153:25 *1137:B 0
22 *200:50 *280:6 0.000124595
23 *209:16 *1137:B 0
24 *279:49 *280:32 0.000126582
*RES
1 *1223:Q *280:6 17.2286 
2 *280:6 *1133:B 21.1571 
3 *280:6 *280:19 0.946429 
4 *280:19 *1280:A 9.72857 
5 *280:19 *280:32 11.4643 
6 *280:32 *1136:A2 13.8 
7 *280:32 *1137:B 16.1929 
*END

*D_NET *281 0.0028569
*CONN
*I *1137:C I *D sky130_fd_sc_hd__and3_1
*I *1278:A I *D sky130_fd_sc_hd__dlygate4sd3_1
*I *1224:Q O *D sky130_fd_sc_hd__dfxtp_1
*CAP
1 *1137:C 0.000298841
2 *1278:A 0
3 *1224:Q 0.000508557
4 *281:12 0.000807398
5 *1136:B1 *1137:C 0.000125336
6 *1136:B1 *281:12 6.05148e-05
7 *1137:A *1137:C 7.78015e-05
8 *1137:B *1137:C 1.03968e-05
9 *1139:A2 *1137:C 4.88637e-05
10 *1139:A2 *281:12 0.000440705
11 *1139:A3 *281:12 9.60993e-05
12 *1139:B1 *281:12 1.89967e-05
13 *1139:B2 *281:12 4.58194e-05
14 *1224:D *281:12 0.000317566
*RES
1 *1224:Q *281:12 19.9429 
2 *281:12 *1278:A 9.3 
3 *281:12 *1137:C 14.7643 
*END

*D_NET *282 0.00396299
*CONN
*I *1247:A I *D sky130_fd_sc_hd__dlygate4sd3_1
*I *1146:A I *D sky130_fd_sc_hd__and4_1
*I *1140:A I *D sky130_fd_sc_hd__or2_1
*I *1143:B I *D sky130_fd_sc_hd__and3_1
*I *1019:A2 I *D sky130_fd_sc_hd__a21o_1
*I *1225:Q O *D sky130_fd_sc_hd__dfxtp_1
*CAP
1 *1247:A 6.35458e-05
2 *1146:A 8.87993e-05
3 *1140:A 2.73814e-05
4 *1143:B 6.60569e-05
5 *1019:A2 0.000107901
6 *1225:Q 9.03847e-05
7 *282:34 0.000116181
8 *282:16 0.000786866
9 *282:10 0.000724748
10 *282:8 0.000265771
11 *1019:A2 *1143:A 0.000109078
12 *1138:A *1140:A 0.000100165
13 *1141:A *1247:A 0.000139344
14 *1142:B2 *282:16 0
15 *1143:C *1019:A2 1.95435e-05
16 *153:33 *1140:A 7.62237e-05
17 *153:33 *1146:A 0.000235273
18 *158:27 *1146:A 0.000141941
19 *158:29 *1140:A 5.49995e-05
20 *158:29 *1146:A 0.00029908
21 *163:8 *1019:A2 9.61161e-05
22 *163:8 *1143:B 5.33005e-05
23 *209:16 *282:8 7.38656e-05
24 *209:16 *282:10 9.95262e-05
25 *209:16 *282:16 0.000126899
*RES
1 *1225:Q *282:8 15.7464 
2 *282:8 *282:10 2.55357 
3 *282:10 *282:16 13.125 
4 *282:16 *1019:A2 12.5143 
5 *282:16 *1143:B 10.2464 
6 *282:10 *282:34 4.5 
7 *282:34 *1140:A 10.6571 
8 *282:34 *1146:A 13.5321 
9 *282:8 *1247:A 15.1571 
*END

*D_NET *283 0.00249781
*CONN
*I *1277:A I *D sky130_fd_sc_hd__dlygate4sd3_1
*I *1019:A1 I *D sky130_fd_sc_hd__a21o_1
*I *1143:A I *D sky130_fd_sc_hd__and3_1
*I *1226:Q O *D sky130_fd_sc_hd__dfxtp_1
*CAP
1 *1277:A 9.24689e-05
2 *1019:A1 0
3 *1143:A 0.000219989
4 *1226:Q 0.00015932
5 *283:14 0.00077085
6 *283:8 0.000802649
7 *283:14 *1019:B1 8.86787e-05
8 rx_data[4] *1277:A 0
9 *1019:A2 *1143:A 0.000109078
10 *1143:C *1143:A 1.95435e-05
11 *1147:A1 *1277:A 0
12 *1147:A1 *283:14 0
13 *1150:A *283:14 4.57445e-05
14 *1227:CLK *283:8 0.000123673
15 *163:8 *1143:A 9.44309e-06
16 *163:8 *283:14 5.03239e-05
17 *200:123 *283:14 0
18 *200:129 *283:8 6.05161e-06
*RES
1 *1226:Q *283:8 15.9786 
2 *283:8 *283:14 14.0893 
3 *283:14 *1143:A 12.3179 
4 *283:14 *1019:A1 9.3 
5 *283:8 *1277:A 15.4429 
*END

*D_NET *284 0.00332364
*CONN
*I *1149:S I *D sky130_fd_sc_hd__mux2_1
*I *1019:B1 I *D sky130_fd_sc_hd__a21o_1
*I *1153:A I *D sky130_fd_sc_hd__and4_1
*I *1151:B I *D sky130_fd_sc_hd__nand3_1
*I *1227:Q O *D sky130_fd_sc_hd__dfxtp_1
*CAP
1 *1149:S 0
2 *1019:B1 0.000378868
3 *1153:A 0
4 *1151:B 0.000135215
5 *1227:Q 0.00010961
6 *284:36 0.000579123
7 *284:14 0.000386385
8 *284:8 0.000561036
9 *1149:A0 *1019:B1 1.64621e-05
10 *1149:A0 *284:36 5.49489e-05
11 *1149:A1 *1019:B1 0.000401481
12 *1152:B1 *1151:B 0.000172884
13 *1153:C *1151:B 0.000103437
14 *1153:C *284:14 1.84776e-05
15 *164:12 *1019:B1 0.000317033
16 *283:14 *1019:B1 8.86787e-05
*RES
1 *1227:Q *284:8 15.7464 
2 *284:8 *284:14 8.625 
3 *284:14 *1151:B 21.3893 
4 *284:14 *1153:A 9.3 
5 *284:8 *284:36 7.91071 
6 *284:36 *1019:B1 27.4607 
7 *284:36 *1149:S 9.3 
*END

*D_NET *285 0.00397291
*CONN
*I *1244:A I *D sky130_fd_sc_hd__dlygate4sd3_1
*I *1151:A I *D sky130_fd_sc_hd__nand3_1
*I *1023:A I *D sky130_fd_sc_hd__and4_1
*I *1228:Q O *D sky130_fd_sc_hd__dfxtp_1
*CAP
1 *1244:A 0.000124482
2 *1151:A 0.000113326
3 *1023:A 0.000300271
4 *1228:Q 0.000120688
5 *285:10 0.000647685
6 *285:8 0.000479258
7 *1023:A *1023:B 1.32552e-05
8 *1020:A *1023:A 0.000343747
9 *1020:A *285:10 0.000386479
10 *1023:C *1023:A 7.32272e-05
11 *1154:B1 *285:10 0.000150917
12 *1155:A_N *1151:A 0.000215641
13 *1291:A *1244:A 0
14 *73:18 *1023:A 0.00057022
15 *74:14 *1023:A 1.74352e-05
16 *153:90 *1023:A 0
17 *168:8 *1151:A 9.84729e-05
18 *229:10 *1244:A 0.000202842
19 *229:10 *285:10 0.00011496
*RES
1 *1228:Q *285:8 15.1571 
2 *285:8 *285:10 6.5 
3 *285:10 *1023:A 22.7464 
4 *285:10 *1151:A 16.8 
5 *285:8 *1244:A 16.9607 
*END

*D_NET *286 0.00237992
*CONN
*I *1020:B I *D sky130_fd_sc_hd__nand3_2
*I *1023:B I *D sky130_fd_sc_hd__and4_1
*I *1156:S I *D sky130_fd_sc_hd__mux2_1
*I *1229:Q O *D sky130_fd_sc_hd__dfxtp_1
*CAP
1 *1020:B 0
2 *1023:B 0.000223122
3 *1156:S 0.000105872
4 *1229:Q 0.000184958
5 *286:21 0.000463793
6 *286:8 0.0005315
7 *1023:A *1023:B 1.32552e-05
8 *1023:C *1023:B 0.000125057
9 *1155:B *286:21 0
10 *1156:A0 *286:21 0.000163883
11 *1156:A1 *1156:S 5.66971e-05
12 *73:18 *286:21 8.07879e-05
13 *210:31 *286:21 0.000430996
*RES
1 *1229:Q *286:8 12.3179 
2 *286:8 *1156:S 11.0679 
3 *286:8 *286:21 16.4107 
4 *286:21 *1023:B 12.6214 
5 *286:21 *1020:B 9.3 
*END

*D_NET *287 0.00308136
*CONN
*I *1274:A I *D sky130_fd_sc_hd__dlygate4sd3_1
*I *1090:B1 I *D sky130_fd_sc_hd__o21a_1
*I *1024:B I *D sky130_fd_sc_hd__and3_1
*I *1098:S0 I *D sky130_fd_sc_hd__mux4_1
*I *1099:S0 I *D sky130_fd_sc_hd__mux4_1
*I *1206:Q O *D sky130_fd_sc_hd__dfxtp_1
*CAP
1 *1274:A 0.000216926
2 *1090:B1 1.55603e-05
3 *1024:B 0.000106194
4 *1098:S0 0
5 *1099:S0 0.000328093
6 *1206:Q 0
7 *287:14 0.000679951
8 *287:12 0.000580546
9 *287:10 0.00043425
10 *287:4 0.000513121
11 *1024:B *1024:A 3.92032e-05
12 *1099:S0 *1099:A0 3.05446e-05
13 *287:10 *1099:A2 0
14 *287:12 *1099:A2 0
15 *287:14 *1099:A2 0
16 *1091:A1 *1090:B1 5.52302e-05
17 *1100:A1 *1099:S0 6.24499e-05
18 *126:6 *1090:B1 1.92905e-05
*RES
1 *1206:Q *287:4 9.3 
2 *287:4 *287:10 8.32143 
3 *287:10 *287:12 1.94643 
4 *287:12 *287:14 5.58929 
5 *287:14 *1099:S0 19.425 
6 *287:14 *1098:S0 13.8 
7 *287:12 *1024:B 15.1571 
8 *287:10 *1090:B1 14.3357 
9 *287:4 *1274:A 13.0321 
*END

*D_NET *288 0.00519888
*CONN
*I *1024:C I *D sky130_fd_sc_hd__and3_1
*I *1094:A1 I *D sky130_fd_sc_hd__a21oi_1
*I *1100:S I *D sky130_fd_sc_hd__mux2_1
*I *1092:A1 I *D sky130_fd_sc_hd__a21oi_1
*I *1262:A I *D sky130_fd_sc_hd__dlygate4sd3_1
*I *1207:Q O *D sky130_fd_sc_hd__dfxtp_1
*CAP
1 *1024:C 0.000130747
2 *1094:A1 8.07634e-05
3 *1100:S 0.00021051
4 *1092:A1 3.96027e-05
5 *1262:A 2.45606e-05
6 *1207:Q 0.000291909
7 *288:49 0.000537889
8 *288:27 0.000250113
9 *288:25 0.000575966
10 *288:10 0.000566058
11 *1024:C *1024:A 0.000156518
12 *1024:C *289:36 0.000142856
13 *288:10 *1099:S1 0
14 *288:49 *1098:A3 0
15 *288:49 *289:36 0
16 *1026:B *1100:S 0.000197918
17 *1090:A1 *1024:C 5.74639e-05
18 *1090:A1 *1094:A1 1.39726e-05
19 *1092:A2 *1092:A1 2.84424e-05
20 *1092:A2 *1100:S 3.59362e-05
21 *1092:A2 *1262:A 1.84776e-05
22 *1093:B1 *1262:A 5.49995e-05
23 *1094:B1 *1024:C 4.27935e-05
24 *1094:B1 *1094:A1 0.00040381
25 *1097:A *1094:A1 0.000185643
26 *1100:A0 *1100:S 0.000442585
27 *1100:A0 *288:25 9.15842e-06
28 *1100:A0 *288:49 7.74135e-05
29 *1246:A *1094:A1 0.000146591
30 *78:10 *1024:C 0.000328901
31 *78:10 *1094:A1 4.63219e-05
32 *218:12 *288:25 1.95287e-05
33 *218:12 *288:49 8.14359e-05
*RES
1 *1207:Q *288:10 17.4696 
2 *288:10 *1262:A 14.6125 
3 *288:10 *288:25 2.95536 
4 *288:25 *288:27 4.5 
5 *288:27 *1092:A1 9.83571 
6 *288:27 *1100:S 15.925 
7 *288:25 *288:49 11 
8 *288:49 *1094:A1 13.9429 
9 *288:49 *1024:C 14.3536 
*END

*D_NET *289 0.00278153
*CONN
*I *1024:A I *D sky130_fd_sc_hd__and3_1
*I *1245:A I *D sky130_fd_sc_hd__dlygate4sd3_1
*I *1098:S1 I *D sky130_fd_sc_hd__mux4_1
*I *1099:S1 I *D sky130_fd_sc_hd__mux4_1
*I *1208:Q O *D sky130_fd_sc_hd__dfxtp_1
*CAP
1 *1024:A 0.000105031
2 *1245:A 0
3 *1098:S1 7.70239e-05
4 *1099:S1 0.000336679
5 *1208:Q 0.000230613
6 *289:36 0.000315938
7 *289:10 0.000515693
8 *289:8 0.00054351
9 *1098:S1 *1098:A3 9.7497e-05
10 *1099:S1 *1099:A0 4.01768e-05
11 *1099:S1 *1099:A2 0
12 *289:36 *1099:A2 0
13 *1024:B *1024:A 3.92032e-05
14 *1024:C *1024:A 0.000156518
15 *1024:C *289:36 0.000142856
16 *1090:A1 *1024:A 5.13373e-05
17 *1090:A1 *289:36 5.41609e-05
18 *1100:A0 *1099:S1 2.29112e-05
19 *1100:A1 *1099:S1 5.23822e-05
20 *288:10 *1099:S1 0
21 *288:49 *289:36 0
*RES
1 *1208:Q *289:8 16.3893 
2 *289:8 *289:10 1.64286 
3 *289:10 *1099:S1 19.7286 
4 *289:10 *1098:S1 15.5679 
5 *289:8 *289:36 9.01786 
6 *289:36 *1245:A 9.3 
7 *289:36 *1024:A 12.3179 
*END

*D_NET *290 0.00766056
*CONN
*I *1031:D_N I *D sky130_fd_sc_hd__or4b_1
*I *1101:A I *D sky130_fd_sc_hd__or3_1
*I *1102:A1 I *D sky130_fd_sc_hd__a21oi_1
*I *1095:B I *D sky130_fd_sc_hd__or3_1
*I *1104:A1 I *D sky130_fd_sc_hd__o22a_1
*I *1021:B I *D sky130_fd_sc_hd__and2b_1
*I *1022:B I *D sky130_fd_sc_hd__nor3b_1
*I *1025:B I *D sky130_fd_sc_hd__nor3_1
*I *1199:Q O *D sky130_fd_sc_hd__dfxtp_2
*CAP
1 *1031:D_N 0
2 *1101:A 0.000370385
3 *1102:A1 0
4 *1095:B 0
5 *1104:A1 0.000234338
6 *1021:B 0
7 *1022:B 0.000135406
8 *1025:B 0.000289675
9 *1199:Q 0.000235922
10 *290:93 0.000523147
11 *290:69 0.00033317
12 *290:67 0.000729195
13 *290:59 0.000718157
14 *290:14 0.000555127
15 *290:12 0.000233152
16 *290:10 0.000579584
17 *1022:B *1021:A_N 5.66971e-05
18 *1025:B *1025:C 5.50052e-05
19 *1104:A1 *1104:A2 2.84109e-05
20 *290:67 *291:67 7.83659e-05
21 *1028:A1 *290:59 3.67142e-05
22 *1031:A *290:59 0.000161246
23 *1032:A *1022:B 1.62025e-05
24 *1034:A *1104:A1 5.12608e-05
25 *1034:A *290:67 0.000199905
26 *1034:A *290:69 6.8529e-05
27 *1035:A *1104:A1 0.000126094
28 *1035:C_N *290:59 0.000338593
29 *1095:A *290:93 6.24558e-05
30 *1101:C *1101:A 0.000196978
31 *1103:B1 *1101:A 3.50746e-05
32 *1104:B2 *1104:A1 1.21258e-05
33 *1271:A *290:93 5.47029e-05
34 *1276:A *1104:A1 2.84109e-05
35 *74:14 *290:10 5.97719e-05
36 *74:14 *290:12 3.17067e-05
37 *74:16 *290:59 8.18783e-05
38 *74:39 *290:59 0.000313929
39 *74:41 *290:59 7.22263e-05
40 *74:54 *290:67 0
41 *75:16 *290:59 0.000158971
42 *75:18 *290:59 7.30065e-05
43 *76:25 *290:12 3.65451e-05
44 *76:25 *290:14 5.68259e-05
45 *79:12 *1025:B 0.000175403
46 *79:12 *290:14 1.90223e-05
47 *83:20 *1101:A 1.15916e-05
48 *83:20 *290:93 4.13122e-06
49 *83:101 *290:67 2.1527e-05
50 *200:112 *1104:A1 0
51 *210:31 *290:10 0
52 *210:31 *290:12 0
53 *210:31 *290:14 0
*RES
1 *1199:Q *290:10 17.2107 
2 *290:10 *290:12 2.25 
3 *290:12 *290:14 2.85714 
4 *290:14 *1025:B 19.3179 
5 *290:14 *1022:B 16.4071 
6 *290:12 *1021:B 13.8 
7 *290:10 *290:59 14.1964 
8 *290:59 *290:67 16 
9 *290:67 *290:69 1.35714 
10 *290:69 *1104:A1 22.1393 
11 *290:69 *1095:B 9.3 
12 *290:67 *290:93 7.05357 
13 *290:93 *1102:A1 13.8 
14 *290:93 *1101:A 19.925 
15 *290:59 *1031:D_N 9.3 
*END

*D_NET *291 0.00596574
*CONN
*I *1029:A I *D sky130_fd_sc_hd__and3_1
*I *1104:A2 I *D sky130_fd_sc_hd__o22a_1
*I *1031:B I *D sky130_fd_sc_hd__or4b_1
*I *1022:C_N I *D sky130_fd_sc_hd__nor3b_1
*I *1270:A I *D sky130_fd_sc_hd__dlygate4sd3_1
*I *1025:C I *D sky130_fd_sc_hd__nor3_1
*I *1200:Q O *D sky130_fd_sc_hd__dfxtp_1
*CAP
1 *1029:A 7.5766e-05
2 *1104:A2 0.000303741
3 *1031:B 0
4 *1022:C_N 2.50801e-05
5 *1270:A 7.05947e-05
6 *1025:C 0.000279485
7 *1200:Q 0.000296785
8 *291:67 0.000663769
9 *291:47 0.000722254
10 *291:36 0.000454316
11 *291:25 0.000329128
12 *291:10 0.000692028
13 *1022:C_N *292:19 5.50052e-05
14 *1025:C *1025:A 0.000111639
15 *291:47 *1021:A_N 0
16 *1025:B *1025:C 5.50052e-05
17 *1029:B *291:67 9.90367e-05
18 *1032:A *291:47 0
19 *1032:B *291:47 0
20 *1032:C_N *291:67 7.83659e-05
21 *1034:A *291:67 3.69047e-06
22 *1035:A *1104:A2 4.73286e-05
23 *1035:B *1104:A2 0.000144075
24 *1096:B2 *291:67 5.9563e-05
25 *1101:C *1270:A 0.000185403
26 *1104:A1 *1104:A2 2.84109e-05
27 *1104:B2 *1104:A2 9.77118e-05
28 *1242:A *291:10 4.68532e-05
29 *1242:A *291:25 4.87841e-05
30 *1271:A *1104:A2 0.000140815
31 *74:39 *291:67 0.000274288
32 *74:41 *1104:A2 0.000433495
33 *76:25 *1029:A 0
34 *76:25 *291:47 0
35 *83:101 *1029:A 0
36 *83:101 *291:47 0
37 *83:101 *291:67 6.49548e-05
38 *290:67 *291:67 7.83659e-05
*RES
1 *1200:Q *291:10 17.925 
2 *291:10 *1025:C 18.8893 
3 *291:10 *291:25 2.25 
4 *291:25 *1270:A 15.5679 
5 *291:25 *291:36 2.55357 
6 *291:36 *1022:C_N 14.3357 
7 *291:36 *291:47 4.67857 
8 *291:47 *291:67 29.7679 
9 *291:67 *1031:B 9.3 
10 *291:67 *1104:A2 16.8357 
11 *291:47 *1029:A 14.8357 
*END

*D_NET *292 0.00291061
*CONN
*I *1025:A I *D sky130_fd_sc_hd__nor3_1
*I *1021:A_N I *D sky130_fd_sc_hd__and2b_1
*I *1022:A I *D sky130_fd_sc_hd__nor3b_1
*I *1030:A I *D sky130_fd_sc_hd__buf_2
*I *1201:Q O *D sky130_fd_sc_hd__dfxtp_1
*CAP
1 *1025:A 0.00039561
2 *1021:A_N 0.000121284
3 *1022:A 0
4 *1030:A 0
5 *1201:Q 2.86946e-05
6 *292:19 0.000285016
7 *292:12 0.000422554
8 *292:6 0.000683127
9 *1022:B *1021:A_N 5.66971e-05
10 *1022:C_N *292:19 5.50052e-05
11 *1025:C *1025:A 0.000111639
12 *1032:A *1021:A_N 5.23735e-05
13 *1032:A *292:19 0.000170254
14 *1033:A *1025:A 6.05161e-06
15 *1033:A *292:6 2.85234e-05
16 *1033:A *292:12 0.000341396
17 *76:25 *1021:A_N 0.000100006
18 *83:6 *292:19 4.63305e-05
19 *83:16 *292:19 6.05161e-06
20 *291:47 *1021:A_N 0
*RES
1 *1201:Q *292:6 9.83571 
2 *292:6 *292:12 14.5893 
3 *292:12 *1030:A 9.3 
4 *292:12 *292:19 4.23214 
5 *292:19 *1022:A 9.3 
6 *292:19 *1021:A_N 21.1929 
7 *292:6 *1025:A 16.0143 
*END

*D_NET *293 0.00222353
*CONN
*I *1098:A0 I *D sky130_fd_sc_hd__mux4_1
*I *1258:A I *D sky130_fd_sc_hd__dlygate4sd3_1
*I *1191:Q O *D sky130_fd_sc_hd__dfxtp_1
*CAP
1 *1098:A0 0.000795315
2 *1258:A 0
3 *1191:Q 0.000190609
4 *293:8 0.000985924
5 *1098:A0 *1099:A3 0
6 *1026:B *1098:A0 0
7 *1068:A *1098:A0 5.80706e-06
8 *1192:CLK *1098:A0 0.000106391
9 *1192:CLK *293:8 0.000139482
*RES
1 *1191:Q *293:8 13.1393 
2 *293:8 *1258:A 9.3 
3 *293:8 *1098:A0 32.4607 
*END

*D_NET *294 0.0031228
*CONN
*I *1098:A1 I *D sky130_fd_sc_hd__mux4_1
*I *1255:A I *D sky130_fd_sc_hd__dlygate4sd3_1
*I *1192:Q O *D sky130_fd_sc_hd__dfxtp_1
*CAP
1 *1098:A1 0.000765188
2 *1255:A 0.000118028
3 *1192:Q 0
4 *294:6 0.000883216
5 *1098:A1 *1251:A 0.000147179
6 *1071:A1 *1098:A1 0.000215805
7 *1194:D *1098:A1 0.000140786
8 *80:10 *1098:A1 0.000200143
9 *80:21 *1098:A1 0.000329778
10 *211:25 *1098:A1 0.000183431
11 *211:25 *1255:A 0.000139241
*RES
1 *1192:Q *294:6 13.8 
2 *294:6 *1255:A 16.9607 
3 *294:6 *1098:A1 31.5679 
*END

*D_NET *295 0.00405286
*CONN
*I *1099:A0 I *D sky130_fd_sc_hd__mux4_1
*I *1264:A I *D sky130_fd_sc_hd__dlygate4sd3_1
*I *1193:Q O *D sky130_fd_sc_hd__dfxtp_1
*CAP
1 *1099:A0 0.00123986
2 *1264:A 0.000176424
3 *1193:Q 0.000119433
4 *295:6 0.00153572
5 *1099:A0 *1099:A2 1.00442e-05
6 *1066:A *1264:A 0.000153047
7 *1099:S0 *1099:A0 3.05446e-05
8 *1099:S1 *1099:A0 4.01768e-05
9 *1100:A1 *1099:A0 4.89895e-05
10 *1192:CLK *1099:A0 0.000186669
11 *1219:CLK *1264:A 8.49898e-05
12 *80:68 *1264:A 9.84673e-05
13 *201:130 *1099:A0 8.66063e-05
14 *201:130 *295:6 0.000186662
15 *201:139 *1099:A0 5.52238e-05
*RES
1 *1193:Q *295:6 11.0679 
2 *295:6 *1264:A 22.7107 
3 *295:6 *1099:A0 36.2643 
*END

*D_NET *296 0.00262572
*CONN
*I *1251:A I *D sky130_fd_sc_hd__dlygate4sd3_1
*I *1099:A1 I *D sky130_fd_sc_hd__mux4_1
*I *1194:Q O *D sky130_fd_sc_hd__dfxtp_1
*CAP
1 *1251:A 0.000277806
2 *1099:A1 0.000415643
3 *1194:Q 0.000289264
4 *296:8 0.000982713
5 *1071:A1 *1099:A1 0.000124749
6 *1071:A1 *1251:A 0.000199782
7 *1072:A *1099:A1 6.72034e-05
8 *1072:A *1251:A 0.000121379
9 *1098:A1 *1251:A 0.000147179
*RES
1 *1194:Q *296:8 16.8 
2 *296:8 *1099:A1 21.3179 
3 *296:8 *1251:A 20.3714 
*END

*D_NET *297 0.00375053
*CONN
*I *1252:A I *D sky130_fd_sc_hd__dlygate4sd3_1
*I *1098:A2 I *D sky130_fd_sc_hd__mux4_1
*I *1195:Q O *D sky130_fd_sc_hd__dfxtp_1
*CAP
1 *1252:A 0.000258541
2 *1098:A2 0.00126127
3 *1195:Q 0
4 *297:6 0.00151981
5 *1098:A2 *1098:A3 1.14548e-05
6 *1098:A2 *1099:A2 6.13903e-05
7 *211:25 *1098:A2 0.000199782
8 *211:25 *1252:A 0.000438272
*RES
1 *1195:Q *297:6 13.8 
2 *297:6 *1098:A2 39.2687 
3 *297:6 *1252:A 20.3357 
*END

*D_NET *298 0.00388619
*CONN
*I *1263:A I *D sky130_fd_sc_hd__dlygate4sd3_1
*I *1098:A3 I *D sky130_fd_sc_hd__mux4_1
*I *1196:Q O *D sky130_fd_sc_hd__dfxtp_1
*CAP
1 *1263:A 0.000218341
2 *1098:A3 0.00154332
3 *1196:Q 0
4 *298:6 0.00176166
5 *1075:A1 *1098:A3 2.56694e-05
6 *1075:A1 *1263:A 7.39637e-05
7 *1078:A *1263:A 0
8 *1098:A2 *1098:A3 1.14548e-05
9 *1098:S1 *1098:A3 9.7497e-05
10 *126:12 *1098:A3 4.94362e-05
11 *126:14 *1098:A3 0.00010484
12 *202:43 *1098:A3 0
13 *202:101 *1098:A3 0
14 *263:12 *1263:A 0
15 *288:49 *1098:A3 0
*RES
1 *1196:Q *298:6 13.8 
2 *298:6 *1098:A3 37.8179 
3 *298:6 *1263:A 18.3179 
*END

*D_NET *299 0.0032722
*CONN
*I *1257:A I *D sky130_fd_sc_hd__dlygate4sd3_1
*I *1099:A2 I *D sky130_fd_sc_hd__mux4_1
*I *1197:Q O *D sky130_fd_sc_hd__dfxtp_1
*CAP
1 *1257:A 3.08975e-05
2 *1099:A2 0.00127774
3 *1197:Q 9.46518e-05
4 *299:10 0.00140329
5 *1099:A2 *1099:A3 6.30931e-05
6 *1077:A1 *1099:A2 1.92905e-05
7 *1077:S *1099:A2 8.2731e-05
8 *1090:A1 *1099:A2 6.42242e-05
9 *1098:A2 *1099:A2 6.13903e-05
10 *1099:A0 *1099:A2 1.00442e-05
11 *1099:S1 *1099:A2 0
12 *1100:A1 *1099:A2 1.14548e-05
13 *1197:CLK *1099:A2 0
14 *1197:CLK *299:10 0
15 *1206:D *1099:A2 4.71964e-05
16 *1238:A *1099:A2 0.000106208
17 *202:51 *1099:A2 0
18 *287:10 *1099:A2 0
19 *287:12 *1099:A2 0
20 *287:14 *1099:A2 0
21 *289:36 *1099:A2 0
*RES
1 *1197:Q *299:10 19.9429 
2 *299:10 *1099:A2 40.6795 
3 *299:10 *1257:A 9.83571 
*END

*D_NET *300 0.00385609
*CONN
*I *1253:A I *D sky130_fd_sc_hd__dlygate4sd3_1
*I *1099:A3 I *D sky130_fd_sc_hd__mux4_1
*I *1198:Q O *D sky130_fd_sc_hd__dfxtp_1
*CAP
1 *1253:A 7.82287e-05
2 *1099:A3 0.000918118
3 *1198:Q 0.000188696
4 *300:10 0.00118504
5 *1098:A0 *1099:A3 0
6 *1099:A2 *1099:A3 6.30931e-05
7 *1100:A1 *1099:A3 6.34233e-06
8 *1207:CLK *300:10 2.1768e-05
9 *1207:D *1253:A 2.94194e-05
10 *1207:D *300:10 3.00447e-05
11 *1238:A *1099:A3 0.00133534
*RES
1 *1198:Q *300:10 16.2554 
2 *300:10 *1099:A3 23.9444 
3 *300:10 *1253:A 15.2911 
*END
